% ============================================================
% Instance Marocaine VRPTW - Casablanca
% Générée automatiquement depuis casa_logistics.xlsx
% Contraintes: trafic dynamique (4 créneaux Waze), zones restreintes,
%              flotte hétérogène (Triporteur/Fourgonnette/Camion)
% ============================================================

num_clients   = 50;
num_vehicules = 18;

% demande[1]=depot(0), demande[2..110]=clients
demande = [0, 122, 199, 112, 34, 126, 91, 208, 40, 122, 141, 230, 234, 94, 222, 107, 136, 119, 123, 171, 150, 169, 72, 21, 107, 177, 57, 149, 211, 207, 40, 180, 223, 77, 41, 108, 68, 238, 78, 189, 239, 207, 227, 34, 209, 209, 194, 209, 70, 127, 74];

% Types: 1=Triporteur(300kg)x8, 2=Fourgonnette(1200kg)x5, 3=Camion(5000kg)x5
capacite_vehicule = [300, 300, 300, 300, 300, 300, 300, 300, 1200, 1200, 1200, 1200, 1200, 5000, 5000, 5000, 5000, 5000];
type_vehicule     = [1, 1, 1, 1, 1, 1, 1, 1, 2, 2, 2, 2, 2, 3, 3, 3, 3, 3];

early   = [0, 14, 34, 62, 42, 93, 95, 76, 114, 68, 64, 129, 117, 111, 115, 106, 57, 97, 79, 89, 78, 105, 66, 57, 54, 85, 85, 104, 55, 100, 105, 84, 81, 73, 102, 78, 81, 105, 94, 103, 50, 94, 91, 81, 62, 94, 94, 76, 96, 61, 78];
late    = [600, 138, 152, 139, 168, 240, 205, 225, 208, 227, 160, 265, 209, 244, 227, 194, 178, 261, 142, 256, 250, 191, 147, 144, 209, 263, 191, 182, 185, 166, 252, 158, 256, 218, 211, 154, 204, 193, 235, 168, 174, 227, 221, 228, 207, 182, 245, 222, 244, 194, 185];
service = [0, 11, 10, 21, 24, 10, 21, 11, 21, 15, 10, 18, 20, 12, 14, 19, 14, 15, 12, 19, 16, 15, 18, 20, 23, 13, 20, 17, 18, 23, 14, 13, 18, 21, 16, 22, 23, 21, 13, 23, 13, 14, 22, 19, 18, 17, 12, 17, 11, 21, 15];

% Matrice distance GPS en mètres (statique, pour objectif)
distance = 
[|
  0, 8779, 7782, 7891, 8963, 23961, 22920, 24603, 25764, 24970, 22833, 28823, 26883, 24038, 25777, 18951, 19096, 18931, 17701, 18087, 18553, 17901, 17149, 17843, 17872, 18884, 19214, 19689, 19858, 18533, 23058, 23838, 22684, 20645, 22766, 23382, 25373, 25061, 23763, 26968, 15906, 15045, 17170, 14646, 15846, 22113, 22171, 19457, 21286, 20073, 12866 |
  8779, 0, 5938, 4002, 8781, 27585, 25180, 28061, 29232, 27963, 22737, 28845, 27143, 23629, 25451, 17863, 18404, 18899, 18641, 17376, 20727, 19766, 19714, 20137, 20479, 20538, 20416, 21306, 21164, 19906, 23543, 24067, 23697, 21260, 24249, 24150, 25722, 25985, 24231, 27620, 16665, 16118, 17332, 15413, 16001, 24580, 23940, 21317, 23572, 22444, 11944 |
  7782, 5938, 0, 1962, 2846, 21658, 19270, 22127, 23296, 22025, 17244, 23392, 21604, 18249, 20069, 12611, 13018, 13314, 12832, 11969, 14802, 13856, 13776, 14204, 14540, 14653, 14589, 15433, 15331, 14049, 17903, 18500, 17944, 15557, 18420, 18452, 20144, 20273, 18604, 21985, 10850, 10245, 11659, 9569, 10294, 18654, 18071, 15418, 17654, 16516, 6385 |
  7891, 4002, 1962, 0, 4786, 23617, 21178, 24082, 25250, 23965, 18911, 25048, 23300, 19862, 21686, 14145, 14621, 15022, 14668, 13579, 16724, 15764, 15722, 16136, 16485, 16541, 16437, 17312, 17184, 15917, 19647, 20206, 19750, 17332, 20271, 20227, 21858, 22058, 20342, 23729, 12688, 12123, 13412, 11425, 12064, 20577, 19948, 17317, 19570, 18442, 8052 |
  8963, 8781, 2846, 4786, 0, 18841, 16427, 19299, 20466, 19181, 14648, 20791, 18959, 15719, 17526, 10246, 10543, 10690, 10051, 9497, 11955, 11014, 10936, 11357, 11699, 11823, 11793, 12608, 12529, 11234, 15211, 15851, 15182, 12835, 15616, 15722, 17480, 17531, 15917, 19283, 8074, 7429, 8985, 6778, 7609, 15808, 15246, 12581, 14809, 13670, 3989 |
  23961, 27585, 21658, 23617, 18841, 0, 4456, 779, 1820, 2141, 10913, 11852, 10447, 11750, 11776, 14001, 13092, 11707, 10340, 13486, 7374, 8453, 7983, 7765, 7253, 8130, 8874, 7683, 8280, 8938, 9355, 10022, 7977, 9559, 6678, 8559, 9831, 8169, 9369, 9387, 11897, 12044, 12170, 12831, 12983, 4230, 6069, 7310, 5157, 5797, 16643 |
  22920, 25180, 19270, 21178, 16427, 4456, 0, 4303, 5117, 3296, 6457, 8328, 6592, 7320, 7524, 9894, 8982, 7680, 6804, 9536, 4502, 5414, 5784, 5163, 5048, 4685, 5084, 3985, 4366, 5406, 4903, 5608, 3520, 5303, 2221, 4131, 5662, 4113, 4962, 5785, 8664, 9085, 8517, 9826, 9584, 920, 1687, 3874, 1650, 2857, 13567 |
  24603, 28061, 22127, 24082, 19299, 779, 4303, 0, 1179, 1507, 10726, 11295, 9968, 11490, 11404, 14059, 13147, 11785, 10541, 13596, 7657, 8729, 8387, 8102, 7640, 8323, 8999, 7813, 8366, 9124, 9141, 9753, 7795, 9542, 6496, 8313, 9443, 7769, 9098, 8869, 12176, 12376, 12357, 13161, 13233, 4240, 5971, 7488, 5237, 6013, 16977 |
  25764, 29232, 23296, 25250, 20466, 1820, 5117, 1179, 0, 1882, 11405, 11363, 10206, 12069, 11817, 14986, 14073, 12738, 11591, 14570, 8765, 9830, 9545, 9235, 8792, 9375, 10001, 8825, 9341, 10169, 9800, 10333, 8506, 10417, 7226, 8939, 9848, 8175, 9681, 9044, 13270, 13499, 13392, 14281, 14310, 5205, 6804, 8536, 6237, 7093, 18097 |
  24970, 27963, 22025, 23965, 19181, 2141, 3296, 1507, 1882, 0, 9523, 9789, 8489, 10195, 9997, 13191, 12279, 10969, 9957, 12818, 7292, 8324, 8259, 7836, 7491, 7763, 8302, 7151, 7612, 8536, 7917, 8457, 6628, 8595, 5354, 7057, 8029, 6353, 7805, 7374, 11721, 12029, 11725, 12800, 12714, 3530, 4975, 6923, 4583, 5575, 16599 |
  22833, 22737, 17244, 18911, 14648, 10913, 6457, 10726, 11405, 9523, 0, 6149, 4411, 1353, 2946, 5047, 4361, 3962, 5299, 5366, 6373, 6160, 7691, 6898, 7472, 5276, 4371, 4831, 4166, 5059, 1611, 1468, 2936, 2573, 4237, 2499, 3063, 3951, 1943, 5048, 6933, 7820, 5704, 8187, 7072, 6817, 4897, 5409, 6191, 6427, 10869 |
  28823, 28845, 23392, 25048, 20791, 11852, 8328, 11295, 11363, 9789, 6149, 0, 1993, 5232, 3436, 11014, 10441, 10100, 11125, 11474, 11044, 11306, 12557, 11732, 12063, 10292, 9723, 9564, 9182, 10437, 5778, 4990, 6430, 8180, 6936, 5603, 3481, 4365, 5084, 2547, 12943, 13782, 11820, 14232, 13195, 9179, 7809, 9989, 9275, 10194, 17015 |
  26883, 27143, 21604, 23300, 18959, 10447, 6592, 9968, 10206, 8489, 4411, 1993, 0, 3761, 2256, 9422, 8770, 8289, 9182, 9777, 9057, 9313, 10569, 9742, 10085, 8299, 7742, 7571, 7191, 8454, 3825, 3108, 4440, 6241, 5011, 3610, 1510, 2499, 3120, 1246, 11035, 11855, 9973, 12333, 11350, 7395, 5899, 8001, 7393, 8258, 15249 |
  24038, 23629, 18249, 19862, 15719, 11750, 7320, 11490, 12069, 10195, 1353, 5232, 3761, 0, 1824, 5782, 5241, 5109, 6615, 6285, 7694, 7510, 9034, 8236, 8795, 6615, 5722, 6138, 5494, 6413, 2459, 1738, 3866, 3926, 5119, 3192, 2751, 4120, 2393, 4671, 8174, 9077, 6870, 9398, 8214, 7795, 5885, 6708, 7279, 7637, 11863 |
  25777, 25451, 20069, 21686, 17526, 11776, 7524, 11404, 11817, 9997, 2946, 3436, 2256, 1824, 0, 7597, 7064, 6876, 8213, 8108, 8848, 8838, 10282, 9459, 9940, 7876, 7096, 7279, 6726, 7812, 3259, 2302, 4463, 5357, 5500, 3604, 1968, 3644, 2779, 3401, 9879, 10765, 8631, 11130, 9989, 8170, 6373, 7807, 7874, 8470, 13683 |
  18951, 17863, 12611, 14145, 10246, 14001, 9894, 14059, 14986, 13191, 5047, 11014, 9422, 5782, 7597, 0, 913, 2309, 4232, 1046, 7189, 6285, 7692, 7243, 7975, 6101, 5187, 6359, 5723, 5339, 6233, 6488, 6958, 4619, 8021, 7043, 8110, 8802, 6823, 10091, 4253, 5092, 2807, 4959, 3534, 9818, 8224, 6820, 8845, 8344, 6276 |
  19096, 18404, 13018, 14621, 10543, 13092, 8982, 13147, 14073, 12279, 4361, 10441, 8770, 5241, 7064, 913, 0, 1427, 3483, 1049, 6351, 5486, 6944, 6448, 7180, 5238, 4301, 5464, 4818, 4494, 5432, 5763, 6086, 3715, 7124, 6214, 7408, 8000, 6051, 9371, 3851, 4750, 2335, 4757, 3364, 8906, 7313, 5937, 7935, 7455, 6636 |
  18931, 18899, 13314, 15022, 10690, 11707, 7680, 11785, 12738, 10969, 3962, 10100, 8289, 5109, 6876, 2309, 1427, 0, 2192, 1868, 4933, 4101, 5602, 5061, 5791, 3812, 2879, 4050, 3427, 3075, 4652, 5187, 5035, 2552, 5946, 5322, 6836, 7157, 5333, 8721, 3143, 4070, 1761, 4306, 3113, 7548, 6038, 4513, 6556, 6035, 6969 |
  17701, 18641, 12832, 14668, 10051, 10340, 6804, 10541, 11591, 9957, 5299, 11125, 9182, 6615, 8213, 4232, 3483, 2192, 0, 3405, 3088, 2088, 3464, 3031, 3759, 2218, 1782, 2820, 2535, 1423, 5357, 6150, 5139, 2944, 5608, 5737, 7672, 7508, 6063, 9332, 1981, 2693, 1836, 3274, 2781, 6428, 5366, 3055, 5376, 4543, 6816 |
  18087, 17376, 11969, 13579, 9497, 13486, 9536, 13596, 14570, 12818, 5366, 11474, 9777, 6285, 8108, 1046, 1049, 1868, 3405, 0, 6456, 5491, 6820, 6435, 7163, 5437, 4612, 5802, 5231, 4643, 6339, 6737, 6864, 4405, 7811, 7078, 8390, 8893, 6984, 10337, 3215, 4046, 1808, 3925, 2500, 9368, 7902, 6208, 8358, 7743, 5586 |
  18553, 20727, 14802, 16724, 11955, 7374, 4502, 7657, 8765, 7292, 6373, 11044, 9057, 7694, 8848, 7189, 6351, 4933, 3088, 6456, 0, 1078, 1519, 720, 1101, 1193, 2229, 1570, 2208, 1858, 5592, 6547, 4620, 3885, 4307, 5478, 7639, 6812, 6160, 8787, 4524, 4743, 4912, 5521, 5613, 3853, 3628, 1059, 2861, 1721, 9334 |
  17901, 19766, 13856, 15764, 11014, 8453, 5414, 8729, 9830, 8324, 6160, 11306, 9313, 7510, 8838, 6285, 5486, 4101, 2088, 5491, 1078, 0, 1587, 962, 1693, 1016, 1790, 1797, 2138, 1154, 5646, 6575, 4904, 3588, 4865, 5703, 7841, 7227, 6282, 9182, 3447, 3708, 3878, 4475, 4535, 4841, 4321, 1591, 3812, 2751, 8280 |
  17149, 19714, 13776, 15722, 10936, 7983, 5784, 8387, 9545, 8259, 7691, 12557, 10569, 9034, 10282, 7692, 6944, 5602, 3464, 6820, 1519, 1587, 0, 829, 768, 2421, 3350, 3024, 3562, 2741, 7043, 7991, 6129, 5133, 5816, 6979, 9139, 8332, 7636, 10307, 4248, 4162, 5086, 4943, 5418, 5025, 5103, 2568, 4141, 2928, 8711 |
  17843, 20137, 14204, 16136, 11357, 7765, 5163, 8102, 9235, 7836, 6898, 11732, 9742, 8236, 9459, 7243, 6448, 5061, 3031, 6435, 720, 962, 829, 0, 732, 1623, 2600, 2194, 2749, 2060, 6216, 7166, 5302, 4357, 5026, 6150, 8310, 7521, 6806, 9496, 4183, 4279, 4784, 5066, 5320, 4468, 4347, 1745, 3514, 2328, 8880 |
  17872, 20479, 14540, 16485, 11699, 7253, 5048, 7640, 8792, 7491, 7472, 12063, 10085, 8795, 9940, 7975, 7180, 5791, 3759, 7163, 1101, 1693, 768, 732, 0, 2239, 3258, 2669, 3305, 2767, 6682, 7638, 5664, 4968, 5229, 6532, 8689, 7783, 7236, 9755, 4816, 4824, 5495, 5611, 5971, 4270, 4469, 2134, 3414, 2203, 9405 |
  18884, 20538, 14653, 16541, 11823, 8130, 4685, 8323, 9375, 7763, 5276, 10292, 8299, 6615, 7876, 6101, 5238, 3812, 2218, 5437, 1193, 1016, 2421, 1623, 2239, 0, 1036, 810, 1150, 808, 4658, 5596, 3888, 2738, 3898, 4689, 6831, 6217, 5281, 8169, 3982, 4420, 4040, 5146, 4950, 4234, 3427, 841, 3181, 2335, 8884 |
  19214, 20416, 14589, 16437, 11793, 8874, 5084, 8999, 10001, 8302, 4371, 9723, 7742, 5722, 7096, 5187, 4301, 2879, 1782, 4612, 2229, 1790, 3350, 2600, 3258, 1036, 0, 1190, 753, 721, 3972, 4868, 3478, 1798, 3833, 4175, 6242, 5862, 4644, 7754, 3750, 4377, 3433, 5020, 4542, 4797, 3593, 1636, 3766, 3157, 8597 |
  19689, 21306, 15433, 17312, 12608, 7683, 3985, 7813, 8825, 7151, 4831, 9564, 7571, 6138, 7279, 6359, 5464, 4050, 2820, 5802, 1570, 1797, 3024, 2194, 2669, 810, 1190, 0, 733, 1423, 4027, 4981, 3137, 2428, 3088, 3967, 6124, 5433, 4612, 7394, 4694, 5189, 4575, 5898, 5598, 3630, 2638, 588, 2588, 1999, 9594 |
  19858, 21164, 15331, 17184, 12529, 8280, 4366, 8366, 9341, 7612, 4166, 9182, 7191, 5494, 6726, 5723, 4818, 3427, 2535, 5231, 2208, 2138, 3562, 2749, 3305, 1150, 753, 733, 0, 1332, 3511, 4447, 2831, 1703, 3088, 3588, 5710, 5203, 4144, 7126, 4499, 5105, 4157, 5762, 5292, 4137, 2845, 1314, 3131, 2698, 9350 |
  18533, 19906, 14049, 15917, 11234, 8938, 5406, 9124, 10169, 8536, 5059, 10437, 8454, 6413, 7812, 5339, 4494, 3075, 1423, 4643, 1858, 1154, 2741, 2060, 2767, 808, 721, 1423, 1332, 0, 4693, 5589, 4151, 2488, 4388, 4874, 6957, 6530, 5363, 8440, 3273, 3805, 3234, 4493, 4185, 5006, 4036, 1635, 3954, 3143, 8170 |
  23058, 23543, 17903, 19647, 15211, 9355, 4903, 9141, 9800, 7917, 1611, 5778, 3825, 2459, 3259, 6233, 5432, 4652, 5357, 6339, 5592, 5646, 7043, 6216, 6682, 4658, 3972, 4027, 3511, 4693, 0, 956, 1408, 2418, 2684, 896, 2315, 2569, 710, 4083, 7225, 8034, 6244, 8529, 7611, 5340, 3426, 4548, 4831, 5273, 11603 |
  23838, 24067, 18500, 20206, 15851, 10022, 5608, 9753, 10333, 8457, 1468, 4990, 3108, 1738, 2302, 6488, 5763, 5187, 6150, 6737, 6547, 6575, 7991, 7166, 7638, 5596, 4868, 4981, 4447, 5589, 956, 0, 2249, 3213, 3435, 1481, 1656, 2529, 655, 3608, 7953, 8794, 6865, 9244, 8241, 6131, 4248, 5505, 5702, 6207, 12154 |
  22684, 23697, 17944, 19750, 15182, 7977, 3520, 7795, 8506, 6628, 2936, 6430, 4440, 3866, 4463, 6958, 6086, 5035, 5139, 6864, 4620, 4904, 6129, 5302, 5664, 3888, 3478, 3137, 2831, 4151, 1408, 2249, 0, 2495, 1301, 881, 3025, 2384, 1684, 4295, 7109, 7819, 6390, 8411, 7697, 3931, 2019, 3562, 3453, 4014, 11773 |
  20645, 21260, 15557, 17332, 12835, 9559, 5303, 9542, 10417, 8595, 2573, 8180, 6241, 3926, 5357, 4619, 3715, 2552, 2944, 4405, 3885, 3588, 5133, 4357, 4968, 2738, 1798, 2428, 1703, 2488, 2418, 3213, 2495, 0, 3416, 2895, 4732, 4726, 3127, 6451, 4813, 5616, 3928, 6119, 5268, 5330, 3620, 3015, 4447, 4295, 9319 |
  22766, 24249, 18420, 20271, 15616, 6678, 2221, 6496, 7226, 5354, 4237, 6936, 5011, 5119, 5500, 8021, 7124, 5946, 5608, 7811, 4307, 4865, 5816, 5026, 5229, 3898, 3833, 3088, 3088, 4388, 2684, 3435, 1301, 3416, 0, 1956, 3797, 2583, 2807, 4540, 7583, 8188, 7094, 8851, 8320, 2698, 898, 3323, 2414, 3258, 12400 |
  23382, 24150, 18452, 20227, 15722, 8559, 4131, 8313, 8939, 7057, 2499, 5603, 3610, 3192, 3604, 7043, 6214, 5322, 5737, 7078, 5478, 5703, 6979, 6150, 6532, 4689, 4175, 3967, 3588, 4874, 896, 1481, 881, 2895, 1956, 0, 2160, 1838, 852, 3597, 7672, 8430, 6818, 8980, 8164, 4654, 2790, 4419, 4274, 4890, 12207 |
  25373, 25722, 20144, 21858, 17480, 9831, 5662, 9443, 9848, 8029, 3063, 3481, 1510, 2751, 1968, 8110, 7408, 6836, 7672, 8390, 7639, 7841, 9139, 8310, 8689, 6831, 6242, 6124, 5710, 6957, 2315, 1656, 3025, 4732, 3797, 2160, 0, 1676, 1610, 1991, 9531, 10347, 8496, 10832, 9871, 6373, 4695, 6579, 6211, 6968, 13805 |
  25061, 25985, 20273, 22058, 17531, 8169, 4113, 7769, 8175, 6353, 3951, 4365, 2499, 4120, 3644, 8802, 8000, 7157, 7508, 8893, 6812, 7227, 8332, 7521, 7783, 6217, 5862, 5433, 5203, 6530, 2569, 2529, 2384, 4726, 2583, 1838, 1676, 0, 2017, 1975, 9466, 10195, 8653, 10772, 9993, 4898, 3445, 5781, 4913, 5839, 14043 |
  23763, 24231, 18604, 20342, 15917, 9369, 4962, 9098, 9681, 7805, 1943, 5084, 3120, 2393, 2779, 6823, 6051, 5333, 6063, 6984, 6160, 6282, 7636, 6806, 7236, 5281, 4644, 4612, 4144, 5363, 710, 655, 1684, 3127, 2807, 852, 1610, 2017, 0, 3388, 7935, 8742, 6945, 9239, 8314, 5505, 3642, 5105, 5119, 5691, 12294 |
  26968, 27620, 21985, 23729, 19283, 9387, 5785, 8869, 9044, 7374, 5048, 2547, 1246, 4671, 3401, 10091, 9371, 8721, 9332, 10337, 8787, 9182, 10307, 9496, 9755, 8169, 7754, 7394, 7126, 8440, 4083, 3608, 4295, 6451, 4540, 3597, 1991, 1975, 3388, 0, 11257, 12026, 10326, 12565, 11691, 6646, 5376, 7754, 6800, 7782, 15683 |
  15906, 16665, 10850, 12688, 8074, 11897, 8664, 12176, 13270, 11721, 6933, 12943, 11035, 8174, 9879, 4253, 3851, 3143, 1981, 3215, 4524, 3447, 4248, 4183, 4816, 3982, 3750, 4694, 4499, 3273, 7225, 7953, 7109, 4813, 7583, 7672, 9531, 9466, 7935, 11257, 0, 929, 1518, 1308, 1172, 8202, 7302, 4812, 7151, 6178, 4903 |
  15045, 16118, 10245, 12123, 7429, 12044, 9085, 12376, 13499, 12029, 7820, 13782, 11855, 9077, 10765, 5092, 4750, 4070, 2693, 4046, 4743, 3708, 4162, 4279, 4824, 4420, 4377, 5189, 5105, 3805, 8034, 8794, 7819, 5616, 8188, 8430, 10347, 10195, 8742, 12026, 929, 0, 2430, 788, 1689, 8547, 7827, 5211, 7512, 6453, 4601 |
  17170, 17332, 11659, 13412, 8985, 12170, 8517, 12357, 13392, 11725, 5704, 11820, 9973, 6870, 8631, 2807, 2335, 1761, 1836, 1808, 4912, 3878, 5086, 4784, 5495, 4040, 3433, 4575, 4157, 3234, 6244, 6865, 6390, 3928, 7094, 6818, 8496, 8653, 6945, 10326, 1518, 2430, 0, 2561, 1376, 8205, 6990, 4869, 7160, 6373, 5391 |
  14646, 15413, 9569, 11425, 6778, 12831, 9826, 13161, 14281, 12800, 8187, 14232, 12333, 9398, 11130, 4959, 4757, 4306, 3274, 3925, 5521, 4475, 4943, 5066, 5611, 5146, 5020, 5898, 5762, 4493, 8529, 9244, 8411, 6119, 8851, 8980, 10832, 10772, 9239, 12565, 1308, 788, 2561, 0, 1425, 9308, 8529, 5952, 8268, 7225, 3816 |
  15846, 16001, 10294, 12064, 7609, 12983, 9584, 13233, 14310, 12714, 7072, 13195, 11350, 8214, 9989, 3534, 3364, 3113, 2781, 2500, 5613, 4535, 5418, 5320, 5971, 4950, 4542, 5598, 5292, 4185, 7611, 8241, 7697, 5268, 8320, 8164, 9871, 9993, 8314, 11691, 1172, 1689, 1376, 1425, 0, 9184, 8136, 5792, 8131, 7221, 4084 |
  22113, 24580, 18654, 20577, 15808, 4230, 920, 4240, 5205, 3530, 6817, 9179, 7395, 7795, 8170, 9818, 8906, 7548, 6428, 9368, 3853, 4841, 5025, 4468, 4270, 4234, 4797, 3630, 4137, 5006, 5340, 6131, 3931, 5330, 2698, 4654, 6373, 4898, 5505, 6646, 8202, 8547, 8205, 9308, 9184, 0, 1921, 3395, 1053, 2141, 13092 |
  22171, 23940, 18071, 19948, 15246, 6069, 1687, 5971, 6804, 4975, 4897, 7809, 5899, 5885, 6373, 8224, 7313, 6038, 5366, 7902, 3628, 4321, 5103, 4347, 4469, 3427, 3593, 2638, 2845, 4036, 3426, 4248, 2019, 3620, 898, 2790, 4695, 3445, 3642, 5376, 7302, 7827, 6990, 8529, 8136, 1921, 0, 2732, 1516, 2406, 12182 |
  19457, 21317, 15418, 17317, 12581, 7310, 3874, 7488, 8536, 6923, 5409, 9989, 8001, 6708, 7807, 6820, 5937, 4513, 3055, 6208, 1059, 1591, 2568, 1745, 2134, 841, 1636, 588, 1314, 1635, 4548, 5505, 3562, 3015, 3323, 4419, 6579, 5781, 5105, 7754, 4812, 5211, 4869, 5952, 5792, 3395, 2732, 0, 2342, 1534, 9710 |
  21286, 23572, 17654, 19570, 14809, 5157, 1650, 5237, 6237, 4583, 6191, 9275, 7393, 7279, 7874, 8845, 7935, 6556, 5376, 8358, 2861, 3812, 4141, 3514, 3414, 3181, 3766, 2588, 3131, 3954, 4831, 5702, 3453, 4447, 2414, 4274, 6211, 4913, 5119, 6800, 7151, 7512, 7160, 8268, 8131, 1053, 1516, 2342, 0, 1213, 12045 |
  20073, 22444, 16516, 18442, 13670, 5797, 2857, 6013, 7093, 5575, 6427, 10194, 8258, 7637, 8470, 8344, 7455, 6035, 4543, 7743, 1721, 2751, 2928, 2328, 2203, 2335, 3157, 1999, 2698, 3143, 5273, 6207, 4014, 4295, 3258, 4890, 6968, 5839, 5691, 7782, 6178, 6453, 6373, 7225, 7221, 2141, 2406, 1534, 1213, 0, 11031 |
  12866, 11944, 6385, 8052, 3989, 16643, 13567, 16977, 18097, 16599, 10869, 17015, 15249, 11863, 13683, 6276, 6636, 6969, 6816, 5586, 9334, 8280, 8711, 8880, 9405, 8884, 8597, 9594, 9350, 8170, 11603, 12154, 11773, 9319, 12400, 12207, 13805, 14043, 12294, 15683, 4903, 4601, 5391, 3816, 4084, 13092, 12182, 9710, 12045, 11031, 0 |];

% Matrices temps de trajet en minutes (trafic dynamique Waze)
% Créneau 0 = NUIT  (h21-h05) : 40 km/h
% Créneau 1 = MATIN (h06-h09) : 20 km/h heure de pointe
% Créneau 2 = MIDI  (h10-h14) : 25 km/h
% Créneau 3 = SOIR  (h15-h20) : 18 km/h heure de pointe sévère
temps_trajet_c0 = 
[|
  0, 11, 13, 11, 16, 36, 35, 37, 39, 38, 35, 44, 41, 37, 39, 29, 29, 29, 27, 28, 28, 27, 26, 27, 27, 29, 29, 30, 30, 28, 35, 36, 35, 31, 35, 36, 39, 38, 36, 41, 24, 23, 26, 22, 24, 34, 34, 30, 32, 31, 20 |
  11, 0, 13, 8, 15, 42, 38, 43, 44, 42, 35, 44, 41, 36, 39, 27, 28, 29, 28, 27, 32, 30, 30, 31, 31, 31, 31, 32, 32, 30, 36, 37, 36, 32, 37, 37, 39, 40, 37, 42, 26, 25, 27, 24, 25, 37, 36, 33, 36, 34, 18 |
  12, 11, 0, 4, 8, 33, 29, 34, 35, 34, 26, 36, 33, 28, 31, 19, 20, 20, 20, 18, 23, 21, 21, 22, 22, 23, 22, 24, 24, 22, 27, 28, 27, 24, 28, 28, 31, 31, 28, 34, 17, 16, 18, 15, 16, 29, 28, 24, 27, 25, 10 |
  10, 8, 7, 0, 10, 36, 32, 37, 38, 36, 29, 38, 35, 30, 33, 22, 22, 23, 23, 21, 26, 24, 24, 25, 25, 25, 25, 26, 26, 24, 30, 31, 30, 27, 31, 31, 33, 34, 31, 36, 20, 19, 21, 18, 19, 31, 30, 27, 30, 28, 13 |
  15, 16, 6, 9, 0, 29, 25, 29, 31, 29, 22, 32, 29, 24, 27, 16, 16, 17, 16, 15, 18, 17, 17, 18, 18, 18, 18, 19, 19, 17, 23, 24, 23, 20, 24, 24, 27, 27, 24, 29, 13, 12, 14, 11, 12, 24, 23, 19, 23, 21, 6 |
  36, 42, 33, 36, 29, 0, 13, 3, 5, 8, 17, 18, 16, 18, 18, 22, 20, 18, 16, 21, 12, 13, 12, 12, 11, 13, 14, 12, 13, 14, 15, 16, 12, 15, 11, 13, 15, 13, 15, 15, 18, 19, 19, 20, 20, 7, 10, 11, 8, 9, 25 |
  35, 38, 29, 32, 25, 8, 0, 10, 11, 12, 10, 13, 10, 11, 12, 15, 14, 12, 11, 15, 7, 9, 9, 8, 8, 8, 8, 6, 7, 9, 8, 9, 6, 8, 4, 7, 9, 7, 8, 9, 14, 14, 13, 15, 15, 2, 3, 6, 3, 5, 21 |
  37, 43, 34, 37, 29, 4, 15, 0, 5, 10, 17, 17, 15, 18, 18, 22, 20, 18, 16, 21, 12, 14, 13, 13, 12, 13, 14, 12, 13, 14, 14, 15, 12, 15, 10, 13, 15, 12, 14, 14, 19, 19, 19, 20, 20, 7, 9, 12, 8, 10, 26 |
  39, 44, 35, 38, 31, 5, 16, 4, 0, 9, 18, 18, 16, 19, 18, 23, 22, 20, 18, 22, 14, 15, 15, 14, 14, 15, 16, 14, 15, 16, 15, 16, 13, 16, 11, 14, 15, 13, 15, 14, 20, 21, 21, 22, 22, 8, 11, 13, 10, 11, 28 |
  38, 42, 34, 36, 29, 9, 16, 10, 13, 0, 15, 15, 13, 16, 16, 20, 19, 17, 15, 20, 11, 13, 13, 12, 12, 12, 13, 11, 12, 13, 12, 13, 10, 13, 9, 11, 13, 10, 12, 12, 18, 19, 18, 20, 20, 6, 8, 11, 7, 9, 25 |
  35, 35, 26, 29, 22, 17, 10, 17, 18, 15, 0, 13, 10, 4, 7, 8, 7, 6, 8, 9, 10, 10, 12, 11, 12, 8, 7, 8, 7, 8, 3, 3, 5, 4, 7, 4, 5, 6, 3, 8, 11, 12, 9, 13, 11, 11, 8, 9, 10, 10, 17 |
  44, 44, 36, 38, 32, 18, 13, 17, 18, 15, 13, 0, 6, 8, 5, 17, 16, 16, 17, 18, 17, 17, 19, 18, 19, 16, 15, 15, 14, 16, 9, 8, 10, 13, 11, 9, 6, 7, 8, 4, 20, 21, 18, 22, 20, 14, 12, 15, 14, 16, 26 |
  41, 41, 33, 35, 29, 16, 10, 15, 16, 13, 11, 6, 0, 8, 7, 15, 14, 13, 14, 15, 14, 14, 16, 15, 16, 13, 12, 12, 11, 13, 6, 5, 7, 10, 8, 6, 3, 4, 5, 2, 17, 18, 15, 19, 18, 12, 9, 13, 12, 13, 23 |
  37, 36, 28, 30, 24, 18, 11, 18, 19, 16, 4, 9, 8, 0, 3, 9, 8, 8, 10, 10, 12, 12, 14, 13, 14, 10, 9, 10, 9, 10, 4, 3, 6, 6, 8, 5, 5, 7, 4, 8, 13, 14, 11, 15, 13, 12, 9, 11, 11, 12, 18 |
  39, 39, 31, 33, 27, 18, 12, 18, 18, 16, 8, 7, 6, 3, 0, 12, 11, 11, 13, 13, 14, 14, 16, 15, 15, 12, 11, 11, 11, 12, 5, 4, 7, 9, 9, 6, 3, 6, 5, 6, 15, 17, 13, 17, 15, 13, 10, 12, 12, 13, 21 |
  29, 27, 19, 22, 16, 22, 15, 22, 23, 20, 8, 17, 15, 9, 12, 0, 6, 12, 21, 8, 11, 10, 12, 11, 12, 10, 8, 10, 9, 9, 10, 10, 11, 7, 13, 11, 13, 14, 11, 16, 7, 8, 5, 8, 6, 15, 13, 11, 14, 13, 10 |
  29, 28, 20, 22, 16, 20, 14, 20, 22, 19, 7, 16, 14, 8, 11, 6, 0, 8, 16, 4, 10, 9, 11, 10, 11, 8, 7, 9, 8, 7, 9, 9, 10, 6, 11, 10, 12, 13, 10, 15, 6, 8, 4, 8, 6, 14, 11, 9, 12, 12, 10 |
  29, 29, 20, 23, 17, 18, 12, 18, 20, 17, 6, 16, 13, 8, 11, 11, 7, 0, 10, 5, 8, 7, 9, 8, 9, 6, 5, 7, 6, 5, 7, 8, 8, 4, 9, 8, 11, 11, 9, 14, 5, 7, 3, 7, 5, 12, 10, 7, 10, 10, 11 |
  27, 28, 20, 23, 16, 16, 11, 16, 18, 15, 8, 17, 14, 10, 13, 21, 16, 9, 0, 14, 5, 4, 6, 5, 6, 4, 3, 5, 4, 3, 9, 10, 8, 5, 9, 9, 12, 12, 10, 15, 3, 5, 3, 5, 5, 10, 9, 5, 9, 7, 11 |
  28, 27, 18, 21, 15, 21, 15, 21, 22, 20, 9, 18, 15, 10, 13, 8, 4, 6, 14, 0, 10, 9, 11, 10, 11, 9, 7, 9, 8, 7, 10, 11, 11, 7, 12, 11, 13, 14, 11, 16, 5, 7, 3, 6, 4, 15, 12, 10, 13, 12, 9 |
  28, 32, 23, 26, 18, 12, 7, 12, 14, 11, 10, 17, 14, 12, 14, 11, 10, 8, 5, 10, 0, 5, 6, 2, 4, 2, 4, 3, 4, 3, 9, 10, 7, 6, 7, 9, 12, 11, 10, 14, 7, 8, 8, 9, 9, 6, 6, 2, 5, 3, 15 |
  27, 30, 21, 24, 17, 13, 9, 14, 15, 13, 10, 17, 14, 12, 14, 10, 9, 7, 4, 9, 4, 0, 6, 4, 7, 2, 3, 3, 4, 2, 9, 10, 8, 6, 8, 9, 12, 11, 10, 14, 6, 6, 6, 7, 7, 8, 7, 3, 6, 5, 13 |
  26, 30, 21, 24, 17, 12, 9, 13, 15, 13, 12, 19, 16, 14, 16, 12, 11, 9, 6, 11, 6, 5, 0, 4, 4, 4, 6, 5, 6, 5, 11, 12, 10, 8, 9, 11, 14, 13, 12, 16, 7, 7, 8, 8, 9, 8, 8, 4, 7, 5, 14 |
  27, 31, 22, 25, 18, 12, 8, 13, 14, 12, 11, 18, 15, 13, 15, 11, 10, 8, 5, 10, 2, 4, 3, 0, 3, 3, 4, 4, 5, 4, 10, 11, 8, 7, 8, 10, 13, 12, 11, 15, 7, 7, 8, 8, 8, 7, 7, 3, 6, 4, 14 |
  27, 31, 22, 25, 18, 11, 8, 12, 14, 12, 12, 19, 16, 14, 15, 12, 11, 9, 6, 11, 4, 7, 4, 4, 0, 4, 5, 5, 5, 5, 11, 12, 9, 8, 8, 10, 14, 12, 11, 15, 8, 8, 9, 9, 9, 7, 7, 4, 6, 4, 15 |
  29, 31, 23, 25, 18, 13, 8, 13, 15, 12, 8, 16, 13, 10, 12, 10, 8, 6, 4, 9, 2, 2, 4, 3, 4, 0, 5, 3, 5, 7, 7, 9, 6, 5, 6, 8, 11, 10, 8, 13, 6, 7, 7, 8, 8, 7, 6, 2, 5, 4, 14 |
  29, 31, 22, 25, 18, 14, 8, 14, 16, 13, 7, 15, 12, 9, 11, 8, 7, 5, 3, 7, 4, 3, 6, 4, 5, 4, 0, 5, 5, 9, 6, 8, 6, 3, 6, 7, 10, 9, 7, 12, 6, 7, 6, 8, 7, 8, 6, 3, 6, 5, 13 |
  30, 32, 24, 26, 19, 12, 6, 12, 14, 11, 8, 15, 12, 10, 11, 10, 9, 7, 5, 9, 3, 3, 5, 4, 5, 3, 6, 0, 4, 8, 7, 8, 5, 4, 5, 6, 10, 9, 7, 12, 8, 8, 7, 9, 9, 6, 4, 1, 4, 4, 15 |
  30, 32, 24, 26, 19, 13, 7, 13, 15, 12, 7, 14, 11, 9, 11, 9, 8, 6, 4, 8, 4, 4, 6, 5, 5, 6, 5, 5, 0, 8, 6, 7, 5, 3, 5, 6, 9, 8, 7, 11, 7, 8, 7, 9, 8, 7, 5, 2, 5, 5, 15 |
  28, 30, 22, 24, 17, 14, 9, 14, 16, 13, 8, 16, 13, 10, 12, 9, 7, 5, 3, 7, 3, 2, 5, 4, 5, 5, 5, 4, 3, 0, 8, 9, 7, 4, 7, 8, 11, 10, 9, 13, 5, 6, 5, 7, 7, 8, 7, 3, 6, 5, 13 |
  35, 36, 27, 30, 23, 15, 8, 14, 15, 12, 3, 9, 6, 4, 5, 10, 9, 7, 9, 10, 9, 9, 11, 10, 11, 7, 6, 7, 6, 8, 0, 4, 3, 8, 7, 2, 4, 4, 2, 7, 11, 13, 10, 13, 12, 9, 6, 7, 8, 8, 18 |
  36, 37, 28, 31, 24, 16, 9, 15, 16, 13, 3, 8, 5, 3, 4, 10, 9, 8, 10, 11, 10, 10, 12, 11, 12, 9, 8, 8, 7, 9, 7, 0, 8, 12, 11, 3, 3, 4, 1, 6, 12, 14, 11, 14, 13, 10, 7, 9, 9, 10, 19 |
  35, 36, 27, 30, 23, 12, 6, 12, 13, 10, 5, 10, 7, 6, 7, 11, 10, 8, 8, 11, 7, 8, 10, 8, 9, 6, 6, 5, 5, 7, 5, 10, 0, 9, 9, 2, 5, 4, 3, 7, 11, 12, 10, 13, 12, 6, 4, 6, 6, 7, 18 |
  31, 32, 24, 27, 20, 15, 8, 15, 16, 13, 4, 13, 10, 6, 9, 7, 6, 4, 5, 7, 6, 6, 8, 7, 8, 5, 3, 4, 3, 4, 8, 12, 9, 0, 10, 5, 8, 8, 5, 10, 8, 9, 6, 10, 8, 9, 6, 5, 7, 7, 14 |
  35, 37, 28, 31, 24, 11, 4, 10, 11, 9, 7, 11, 8, 8, 9, 13, 11, 9, 9, 12, 7, 8, 9, 8, 8, 6, 6, 5, 5, 7, 7, 12, 7, 13, 0, 3, 6, 4, 5, 7, 12, 13, 11, 14, 13, 5, 2, 5, 4, 5, 19 |
  36, 37, 28, 31, 24, 13, 7, 13, 14, 11, 4, 9, 6, 5, 6, 11, 10, 8, 9, 11, 9, 9, 11, 10, 10, 8, 7, 6, 6, 8, 2, 3, 2, 5, 3, 0, 7, 9, 4, 13, 12, 13, 11, 14, 13, 7, 5, 7, 7, 8, 19 |
  39, 39, 31, 33, 27, 15, 9, 15, 15, 13, 5, 6, 3, 5, 3, 13, 12, 11, 12, 13, 12, 12, 14, 13, 14, 11, 10, 10, 9, 11, 4, 3, 5, 8, 6, 8, 0, 5, 6, 6, 15, 16, 13, 17, 15, 10, 8, 10, 10, 11, 21 |
  38, 40, 31, 34, 27, 13, 7, 12, 13, 10, 6, 7, 4, 7, 6, 14, 13, 11, 12, 14, 11, 11, 13, 12, 12, 10, 9, 9, 8, 10, 4, 4, 4, 8, 4, 7, 8, 0, 7, 6, 15, 16, 13, 17, 16, 8, 6, 9, 8, 9, 22 |
  36, 37, 28, 31, 24, 15, 8, 14, 15, 12, 3, 8, 5, 4, 5, 11, 10, 9, 10, 11, 10, 10, 12, 11, 11, 8, 7, 7, 7, 9, 2, 1, 3, 5, 5, 6, 6, 9, 0, 12, 12, 14, 11, 14, 13, 9, 6, 8, 8, 9, 19 |
  41, 42, 34, 36, 29, 15, 9, 14, 14, 12, 8, 4, 2, 8, 6, 16, 15, 14, 15, 16, 14, 14, 16, 15, 15, 13, 12, 12, 11, 13, 7, 6, 7, 10, 7, 11, 7, 7, 11, 0, 17, 19, 16, 19, 18, 10, 9, 12, 11, 12, 24 |
  24, 26, 17, 20, 13, 18, 14, 19, 20, 18, 11, 20, 17, 13, 15, 7, 6, 5, 3, 5, 7, 6, 7, 7, 8, 6, 6, 8, 7, 5, 11, 12, 11, 8, 12, 12, 15, 15, 12, 17, 0, 4, 4, 3, 4, 13, 11, 8, 11, 10, 8 |
  23, 25, 16, 19, 12, 19, 14, 19, 21, 19, 12, 21, 18, 14, 17, 8, 8, 7, 5, 7, 8, 6, 7, 7, 8, 7, 7, 8, 8, 6, 13, 14, 12, 9, 13, 13, 16, 16, 14, 19, 3, 0, 7, 3, 7, 13, 12, 8, 12, 10, 7 |
  26, 27, 18, 21, 14, 19, 13, 19, 21, 18, 9, 18, 15, 11, 13, 5, 4, 3, 3, 3, 8, 6, 8, 8, 9, 7, 6, 7, 7, 5, 10, 11, 10, 6, 11, 11, 13, 13, 11, 16, 4, 8, 0, 7, 4, 13, 11, 8, 11, 10, 9 |
  22, 24, 15, 18, 11, 20, 15, 20, 22, 20, 13, 22, 19, 15, 17, 8, 8, 7, 5, 6, 9, 7, 8, 8, 9, 8, 8, 9, 9, 7, 13, 14, 13, 10, 14, 14, 17, 17, 14, 19, 2, 5, 6, 0, 6, 14, 13, 9, 13, 11, 6 |
  24, 25, 16, 19, 12, 20, 15, 20, 22, 20, 11, 20, 18, 13, 15, 6, 6, 5, 5, 4, 9, 7, 9, 8, 9, 8, 7, 9, 8, 7, 12, 13, 12, 8, 13, 13, 15, 16, 13, 18, 4, 8, 4, 7, 0, 14, 13, 9, 13, 11, 7 |
  34, 37, 29, 31, 24, 7, 2, 7, 8, 6, 11, 14, 12, 12, 13, 15, 14, 12, 10, 15, 6, 8, 8, 7, 7, 7, 8, 6, 7, 8, 9, 10, 6, 9, 5, 7, 10, 8, 9, 10, 13, 13, 13, 14, 14, 0, 6, 9, 3, 6, 20 |
  34, 36, 28, 30, 23, 10, 3, 9, 11, 8, 8, 12, 9, 9, 10, 13, 11, 10, 9, 12, 6, 7, 8, 7, 7, 6, 6, 4, 5, 7, 6, 7, 4, 6, 2, 5, 8, 6, 6, 9, 11, 12, 11, 13, 13, 5, 0, 6, 4, 7, 19 |
  30, 33, 24, 27, 19, 11, 6, 12, 13, 11, 9, 15, 13, 11, 12, 11, 9, 7, 5, 10, 2, 3, 4, 3, 4, 2, 3, 1, 2, 3, 7, 9, 6, 5, 5, 7, 10, 9, 8, 12, 8, 8, 8, 9, 9, 10, 8, 0, 10, 7, 15 |
  32, 36, 27, 30, 23, 8, 3, 8, 10, 7, 10, 14, 12, 11, 12, 14, 12, 10, 9, 13, 5, 6, 7, 6, 6, 5, 6, 4, 5, 6, 8, 9, 6, 7, 4, 7, 10, 8, 8, 11, 11, 12, 11, 13, 13, 3, 5, 6, 0, 5, 19 |
  31, 34, 25, 28, 21, 9, 5, 10, 11, 9, 10, 16, 13, 12, 13, 13, 12, 10, 7, 12, 3, 5, 5, 4, 4, 4, 5, 4, 5, 5, 8, 10, 7, 7, 5, 8, 11, 9, 9, 12, 10, 10, 10, 11, 11, 6, 10, 7, 6, 0, 17 |
  20, 18, 10, 13, 6, 25, 21, 26, 28, 25, 17, 26, 23, 18, 21, 10, 10, 11, 11, 9, 15, 13, 14, 14, 15, 14, 13, 15, 15, 13, 18, 19, 18, 14, 19, 19, 21, 22, 19, 24, 8, 7, 9, 6, 7, 20, 19, 15, 19, 17, 0 |];

temps_trajet_c1 = 
[|
  0, 10, 13, 11, 15, 72, 69, 74, 78, 75, 69, 87, 81, 73, 78, 57, 58, 57, 54, 55, 56, 54, 52, 54, 54, 57, 58, 60, 60, 56, 70, 72, 69, 62, 69, 71, 77, 76, 72, 81, 48, 46, 52, 44, 48, 67, 67, 59, 64, 61, 39 |
  11, 0, 12, 7, 15, 83, 76, 85, 88, 84, 69, 87, 82, 71, 77, 54, 56, 57, 56, 53, 63, 60, 60, 61, 62, 62, 62, 64, 64, 60, 71, 73, 72, 64, 73, 73, 78, 79, 73, 83, 51, 49, 53, 47, 49, 74, 72, 65, 71, 68, 36 |
  12, 10, 0, 4, 8, 66, 58, 67, 70, 67, 52, 71, 65, 55, 61, 38, 40, 40, 39, 36, 45, 42, 42, 43, 44, 45, 44, 47, 47, 43, 54, 56, 54, 47, 56, 56, 61, 61, 56, 67, 33, 31, 36, 29, 31, 57, 55, 47, 54, 50, 20 |
  10, 7, 7, 0, 10, 71, 64, 73, 76, 72, 57, 76, 70, 60, 66, 43, 44, 46, 45, 41, 51, 48, 48, 49, 50, 50, 50, 52, 52, 48, 59, 61, 60, 53, 61, 61, 66, 67, 62, 72, 39, 37, 41, 35, 37, 62, 60, 53, 59, 56, 25 |
  15, 15, 6, 9, 0, 57, 50, 58, 62, 58, 44, 63, 57, 48, 53, 31, 32, 33, 31, 29, 36, 34, 33, 35, 36, 36, 36, 38, 38, 34, 46, 48, 46, 39, 47, 48, 53, 53, 48, 58, 25, 23, 27, 21, 23, 48, 46, 38, 45, 42, 12 |
  72, 83, 66, 71, 57, 0, 16, 3, 5, 7, 33, 36, 32, 36, 36, 43, 40, 36, 32, 41, 23, 26, 24, 24, 22, 25, 27, 24, 25, 27, 29, 31, 24, 29, 21, 26, 30, 25, 29, 29, 36, 37, 37, 39, 39, 13, 19, 22, 16, 18, 50 |
  69, 76, 58, 64, 50, 8, 0, 10, 12, 12, 20, 26, 20, 22, 23, 30, 27, 24, 21, 29, 14, 17, 18, 16, 16, 15, 16, 12, 14, 17, 15, 17, 11, 16, 7, 13, 18, 13, 15, 18, 27, 28, 26, 30, 29, 3, 6, 12, 5, 9, 41 |
  74, 85, 67, 73, 58, 4, 19, 0, 4, 9, 33, 34, 30, 35, 35, 43, 40, 36, 32, 41, 23, 27, 26, 25, 23, 25, 28, 24, 26, 28, 28, 30, 24, 29, 20, 25, 29, 24, 28, 27, 37, 38, 38, 40, 40, 13, 18, 23, 16, 19, 51 |
  78, 88, 70, 76, 62, 5, 19, 4, 0, 9, 35, 35, 31, 37, 36, 46, 43, 39, 35, 44, 27, 30, 29, 28, 27, 29, 31, 27, 29, 31, 30, 32, 26, 32, 22, 27, 30, 25, 30, 28, 40, 41, 41, 43, 43, 16, 21, 26, 19, 22, 55 |
  75, 84, 67, 72, 58, 9, 17, 10, 12, 0, 29, 30, 26, 31, 31, 40, 37, 33, 30, 39, 22, 25, 25, 24, 23, 24, 25, 22, 23, 26, 24, 26, 20, 26, 17, 22, 25, 20, 24, 23, 36, 37, 36, 39, 39, 11, 15, 21, 14, 17, 50 |
  69, 69, 52, 57, 44, 33, 20, 33, 35, 29, 0, 13, 11, 5, 8, 16, 14, 12, 16, 17, 20, 19, 24, 21, 23, 16, 14, 15, 13, 16, 5, 5, 9, 8, 13, 8, 10, 12, 6, 16, 21, 24, 18, 25, 22, 21, 15, 17, 19, 20, 33 |
  87, 87, 71, 76, 63, 36, 26, 34, 35, 30, 13, 0, 6, 8, 5, 34, 32, 31, 34, 35, 34, 34, 38, 36, 37, 31, 30, 29, 28, 32, 18, 15, 20, 25, 21, 17, 11, 14, 16, 8, 39, 42, 36, 43, 40, 28, 24, 30, 28, 31, 52 |
  81, 82, 65, 70, 57, 32, 20, 30, 31, 26, 12, 5, 0, 9, 8, 29, 27, 25, 28, 30, 28, 28, 32, 30, 31, 25, 24, 23, 22, 26, 12, 10, 14, 19, 16, 11, 5, 8, 10, 4, 34, 36, 30, 38, 35, 23, 18, 25, 23, 25, 46 |
  73, 71, 55, 60, 48, 36, 22, 35, 37, 31, 4, 9, 8, 0, 3, 18, 16, 16, 20, 19, 24, 23, 28, 25, 27, 20, 18, 19, 17, 20, 8, 6, 12, 12, 16, 10, 9, 13, 8, 15, 25, 28, 21, 29, 25, 24, 18, 21, 22, 23, 36 |
  78, 77, 61, 66, 53, 36, 23, 35, 36, 31, 8, 6, 6, 3, 0, 23, 22, 21, 25, 25, 27, 27, 31, 29, 30, 24, 22, 22, 21, 24, 10, 7, 14, 17, 17, 11, 6, 11, 9, 11, 30, 33, 26, 34, 30, 25, 20, 24, 24, 26, 42 |
  57, 54, 38, 43, 31, 43, 30, 43, 46, 40, 16, 34, 29, 18, 23, 0, 6, 13, 23, 9, 22, 19, 24, 22, 24, 19, 16, 20, 18, 17, 19, 20, 21, 14, 25, 22, 25, 27, 21, 31, 13, 16, 9, 15, 11, 30, 25, 21, 27, 26, 19 |
  58, 56, 40, 44, 32, 40, 27, 40, 43, 37, 14, 32, 27, 16, 22, 6, 0, 8, 17, 5, 20, 17, 21, 20, 22, 16, 13, 17, 15, 14, 17, 18, 19, 12, 22, 19, 23, 25, 19, 29, 12, 15, 8, 15, 11, 27, 22, 18, 24, 23, 20 |
  57, 57, 40, 46, 33, 36, 24, 36, 39, 33, 12, 31, 25, 16, 21, 11, 7, 0, 10, 6, 15, 13, 17, 16, 18, 12, 9, 13, 11, 10, 14, 16, 16, 8, 18, 16, 21, 22, 17, 27, 10, 13, 6, 13, 10, 23, 19, 14, 20, 19, 21 |
  54, 56, 39, 45, 31, 32, 21, 32, 35, 30, 16, 34, 28, 20, 25, 22, 19, 11, 0, 15, 10, 7, 11, 10, 12, 7, 6, 9, 8, 5, 17, 19, 16, 9, 17, 18, 24, 23, 19, 29, 6, 9, 6, 10, 9, 20, 17, 10, 17, 14, 21 |
  55, 53, 36, 41, 29, 41, 29, 41, 44, 39, 17, 35, 30, 19, 25, 8, 4, 6, 15, 0, 20, 17, 21, 20, 22, 17, 14, 18, 16, 14, 20, 21, 21, 14, 24, 22, 26, 27, 21, 32, 10, 13, 6, 12, 8, 29, 24, 19, 26, 24, 17 |
  56, 63, 45, 51, 36, 23, 14, 23, 27, 22, 20, 34, 28, 24, 27, 22, 20, 15, 10, 20, 0, 5, 6, 3, 5, 4, 7, 5, 7, 6, 17, 20, 14, 12, 13, 17, 23, 21, 19, 27, 14, 15, 15, 17, 17, 12, 11, 4, 9, 6, 29 |
  54, 60, 42, 48, 34, 26, 17, 27, 30, 25, 19, 34, 28, 23, 27, 19, 17, 13, 7, 17, 5, 0, 6, 4, 8, 4, 6, 6, 7, 4, 17, 20, 15, 11, 15, 18, 24, 22, 19, 28, 11, 12, 12, 14, 14, 15, 13, 5, 12, 9, 25 |
  52, 60, 42, 48, 33, 24, 18, 26, 29, 25, 24, 38, 32, 28, 31, 24, 21, 17, 11, 21, 7, 6, 0, 5, 5, 8, 11, 10, 11, 9, 22, 24, 19, 16, 18, 21, 28, 26, 23, 31, 13, 13, 16, 15, 17, 16, 16, 8, 13, 9, 27 |
  54, 61, 43, 49, 35, 24, 16, 25, 28, 24, 21, 36, 30, 25, 29, 22, 20, 16, 10, 20, 2, 4, 4, 0, 4, 5, 8, 7, 9, 7, 19, 22, 16, 14, 16, 19, 25, 23, 21, 29, 13, 13, 15, 16, 16, 14, 14, 6, 11, 7, 27 |
  54, 62, 44, 50, 36, 22, 16, 23, 27, 23, 23, 37, 31, 27, 30, 24, 22, 18, 12, 22, 4, 7, 4, 4, 0, 7, 10, 9, 10, 9, 21, 23, 18, 15, 16, 20, 27, 24, 22, 30, 15, 15, 17, 17, 18, 13, 14, 7, 11, 7, 29 |
  57, 62, 45, 50, 36, 25, 15, 25, 29, 24, 16, 31, 25, 20, 24, 19, 16, 12, 7, 17, 4, 4, 8, 5, 7, 0, 6, 4, 5, 8, 14, 17, 12, 9, 12, 15, 21, 19, 16, 25, 12, 14, 13, 16, 15, 13, 11, 3, 10, 8, 27 |
  58, 62, 44, 50, 36, 27, 16, 28, 31, 25, 14, 30, 24, 18, 22, 16, 13, 9, 6, 14, 7, 6, 11, 8, 10, 5, 0, 6, 6, 10, 12, 15, 11, 6, 12, 13, 19, 18, 14, 24, 12, 14, 11, 16, 14, 15, 11, 5, 12, 10, 26 |
  60, 64, 47, 52, 38, 24, 12, 24, 27, 22, 15, 29, 23, 19, 22, 20, 17, 13, 9, 18, 5, 6, 10, 7, 9, 3, 7, 0, 4, 8, 13, 15, 10, 8, 10, 12, 19, 17, 14, 23, 15, 16, 14, 18, 17, 11, 8, 2, 8, 7, 29 |
  60, 64, 47, 52, 38, 25, 14, 26, 29, 23, 13, 28, 22, 17, 21, 18, 15, 11, 8, 16, 7, 7, 11, 9, 10, 6, 5, 5, 0, 9, 11, 14, 9, 6, 10, 11, 18, 16, 13, 22, 14, 16, 13, 18, 16, 13, 9, 4, 10, 9, 29 |
  56, 60, 43, 48, 34, 27, 17, 28, 31, 26, 16, 32, 26, 20, 24, 17, 14, 10, 5, 14, 6, 4, 9, 7, 9, 5, 6, 4, 3, 0, 15, 17, 13, 8, 14, 15, 21, 20, 17, 26, 10, 12, 10, 14, 13, 16, 13, 5, 12, 10, 25 |
  70, 71, 54, 59, 46, 29, 15, 28, 30, 24, 5, 18, 12, 8, 10, 19, 17, 14, 17, 20, 17, 17, 22, 19, 21, 14, 12, 13, 11, 15, 0, 5, 4, 9, 9, 3, 7, 8, 3, 13, 22, 25, 19, 26, 23, 17, 11, 14, 15, 16, 35 |
  72, 73, 56, 61, 48, 31, 17, 30, 32, 26, 5, 15, 10, 6, 7, 20, 18, 16, 19, 21, 20, 20, 24, 22, 23, 17, 15, 15, 14, 17, 9, 0, 10, 15, 15, 5, 5, 8, 2, 11, 24, 27, 21, 28, 25, 19, 13, 17, 18, 19, 37 |
  69, 72, 54, 60, 46, 24, 11, 24, 26, 20, 9, 20, 14, 12, 14, 21, 19, 16, 16, 21, 14, 15, 19, 16, 18, 12, 11, 10, 9, 13, 6, 11, 0, 11, 10, 3, 10, 8, 6, 13, 22, 24, 20, 26, 24, 12, 7, 11, 11, 13, 36 |
  62, 64, 47, 53, 39, 29, 16, 29, 32, 26, 8, 25, 19, 12, 17, 14, 12, 8, 9, 14, 12, 11, 16, 14, 15, 9, 6, 8, 6, 8, 10, 15, 10, 0, 10, 9, 15, 15, 10, 20, 15, 17, 12, 19, 16, 17, 11, 10, 14, 13, 28 |
  69, 73, 56, 61, 47, 21, 7, 20, 22, 17, 13, 21, 16, 16, 17, 25, 22, 18, 17, 24, 13, 15, 18, 16, 16, 12, 12, 10, 10, 14, 10, 14, 9, 15, 0, 6, 12, 8, 9, 14, 23, 25, 22, 27, 25, 9, 3, 10, 8, 10, 38 |
  71, 73, 56, 61, 48, 26, 13, 25, 27, 22, 8, 17, 11, 10, 11, 22, 19, 16, 18, 22, 17, 18, 21, 19, 20, 15, 13, 12, 11, 15, 3, 5, 3, 9, 6, 0, 9, 9, 5, 13, 24, 26, 21, 27, 25, 14, 9, 14, 13, 15, 37 |
  77, 78, 61, 66, 53, 30, 18, 29, 30, 25, 10, 11, 5, 9, 6, 25, 23, 21, 24, 26, 23, 24, 28, 25, 27, 21, 19, 19, 18, 21, 7, 5, 10, 15, 12, 8, 0, 6, 6, 6, 29, 32, 26, 33, 30, 20, 15, 20, 19, 21, 42 |
  76, 79, 61, 67, 53, 25, 13, 24, 25, 20, 12, 14, 8, 13, 11, 27, 25, 22, 23, 27, 21, 22, 26, 23, 24, 19, 18, 17, 16, 20, 8, 8, 8, 15, 8, 10, 12, 0, 11, 6, 29, 31, 26, 33, 31, 15, 11, 18, 15, 18, 43 |
  72, 73, 56, 62, 48, 29, 15, 28, 30, 24, 6, 16, 10, 8, 9, 21, 19, 17, 19, 21, 19, 19, 23, 21, 22, 16, 14, 14, 13, 17, 3, 2, 6, 10, 9, 7, 7, 10, 0, 14, 24, 27, 21, 28, 25, 17, 11, 16, 16, 18, 37 |
  81, 83, 67, 72, 58, 29, 18, 27, 28, 23, 16, 8, 4, 15, 11, 31, 29, 27, 29, 32, 27, 28, 31, 29, 30, 25, 24, 23, 22, 26, 13, 11, 13, 20, 14, 12, 8, 8, 13, 0, 34, 37, 32, 38, 36, 20, 17, 24, 21, 24, 48 |
  48, 51, 33, 39, 25, 36, 27, 37, 40, 36, 21, 39, 34, 25, 30, 13, 12, 10, 6, 10, 14, 11, 13, 13, 15, 12, 12, 15, 14, 10, 22, 24, 22, 15, 23, 24, 29, 29, 24, 34, 0, 4, 5, 3, 5, 25, 22, 15, 22, 19, 15 |
  46, 49, 31, 37, 23, 37, 28, 38, 41, 37, 24, 42, 36, 28, 33, 16, 15, 13, 9, 13, 15, 12, 13, 13, 15, 14, 14, 16, 16, 12, 25, 27, 24, 17, 25, 26, 32, 31, 27, 37, 3, 0, 8, 3, 8, 26, 24, 16, 23, 20, 14 |
  52, 53, 36, 41, 27, 37, 26, 38, 41, 36, 18, 36, 30, 21, 26, 9, 8, 6, 6, 6, 15, 12, 16, 15, 17, 13, 11, 14, 13, 10, 19, 21, 20, 12, 22, 21, 26, 26, 21, 32, 5, 9, 0, 8, 5, 25, 21, 15, 22, 20, 17 |
  44, 47, 29, 35, 21, 39, 30, 40, 43, 39, 25, 43, 38, 29, 34, 15, 15, 13, 10, 12, 17, 14, 15, 16, 17, 16, 16, 18, 18, 14, 26, 28, 26, 19, 27, 27, 33, 33, 28, 38, 3, 5, 7, 0, 7, 28, 26, 18, 25, 22, 12 |
  48, 49, 31, 37, 23, 39, 29, 40, 43, 39, 22, 40, 35, 25, 30, 11, 11, 10, 9, 8, 17, 14, 17, 16, 18, 15, 14, 17, 16, 13, 23, 25, 24, 16, 25, 25, 30, 31, 25, 36, 5, 9, 4, 8, 0, 28, 25, 18, 25, 22, 13 |
  67, 74, 57, 62, 48, 13, 3, 13, 16, 11, 21, 28, 23, 24, 25, 30, 27, 23, 20, 29, 12, 15, 16, 14, 13, 13, 15, 11, 13, 16, 17, 19, 12, 17, 9, 14, 20, 15, 17, 20, 25, 26, 25, 28, 28, 0, 7, 10, 3, 6, 40 |
  67, 72, 55, 60, 46, 19, 6, 18, 21, 15, 15, 24, 18, 18, 20, 25, 22, 19, 17, 24, 11, 13, 16, 14, 14, 11, 11, 8, 9, 13, 11, 13, 7, 11, 3, 9, 15, 11, 11, 17, 22, 24, 21, 26, 25, 5, 0, 6, 4, 7, 37 |
  59, 65, 47, 53, 38, 22, 12, 23, 26, 21, 17, 30, 25, 21, 24, 21, 18, 14, 10, 19, 4, 5, 8, 6, 7, 3, 5, 2, 4, 5, 14, 17, 11, 10, 10, 14, 20, 18, 16, 24, 15, 16, 15, 18, 18, 11, 9, 0, 11, 8, 30 |
  64, 71, 54, 59, 45, 16, 5, 16, 19, 14, 19, 28, 23, 22, 24, 27, 24, 20, 17, 26, 9, 12, 13, 11, 11, 10, 12, 8, 10, 12, 15, 18, 11, 14, 8, 13, 19, 15, 16, 21, 22, 23, 22, 25, 25, 3, 5, 6, 0, 5, 37 |
  61, 68, 50, 56, 42, 18, 9, 19, 22, 17, 20, 31, 25, 23, 26, 26, 23, 19, 14, 24, 6, 9, 9, 7, 7, 8, 10, 7, 9, 10, 16, 19, 13, 13, 10, 15, 21, 18, 18, 24, 19, 20, 20, 22, 22, 6, 10, 6, 6, 0, 34 |
  39, 36, 20, 25, 12, 50, 41, 51, 55, 50, 33, 52, 46, 36, 42, 19, 20, 21, 21, 17, 29, 25, 27, 27, 29, 27, 26, 29, 29, 25, 35, 37, 36, 28, 38, 37, 42, 43, 37, 48, 15, 14, 17, 12, 13, 40, 37, 30, 37, 34, 0 |];

temps_trajet_c2 = 
[|
  0, 10, 13, 11, 15, 58, 56, 60, 62, 61, 55, 70, 65, 58, 62, 46, 46, 46, 43, 44, 45, 44, 42, 43, 43, 46, 47, 48, 48, 45, 56, 58, 55, 50, 55, 57, 61, 61, 58, 65, 39, 37, 42, 36, 39, 54, 54, 47, 52, 49, 31 |
  11, 0, 12, 7, 15, 67, 61, 68, 71, 68, 55, 70, 66, 57, 62, 43, 45, 46, 45, 42, 50, 48, 48, 49, 50, 50, 50, 52, 51, 48, 57, 58, 57, 52, 59, 59, 62, 63, 59, 67, 41, 39, 42, 38, 39, 60, 58, 52, 57, 54, 29 |
  12, 10, 0, 4, 8, 53, 47, 54, 56, 53, 42, 57, 52, 44, 49, 31, 32, 33, 31, 29, 36, 34, 34, 35, 35, 36, 36, 38, 37, 34, 44, 45, 44, 38, 45, 45, 49, 49, 45, 53, 27, 25, 29, 24, 25, 45, 44, 38, 43, 40, 16 |
  10, 7, 7, 0, 10, 57, 51, 58, 61, 58, 46, 61, 57, 48, 53, 35, 36, 37, 36, 33, 41, 38, 38, 39, 40, 40, 40, 42, 42, 39, 48, 49, 48, 42, 49, 49, 53, 54, 49, 58, 31, 30, 33, 28, 29, 50, 48, 42, 48, 45, 20 |
  15, 15, 6, 10, 0, 46, 40, 47, 50, 47, 36, 50, 46, 38, 43, 25, 26, 26, 25, 23, 29, 27, 27, 28, 29, 29, 29, 31, 31, 28, 37, 39, 37, 31, 38, 38, 43, 43, 39, 47, 20, 18, 22, 17, 19, 38, 37, 31, 36, 33, 10 |
  58, 67, 53, 57, 46, 0, 13, 3, 5, 7, 27, 29, 26, 29, 29, 34, 32, 29, 25, 33, 18, 21, 20, 19, 18, 20, 22, 19, 20, 22, 23, 25, 20, 23, 17, 21, 24, 20, 23, 23, 29, 29, 30, 31, 32, 11, 15, 18, 13, 14, 41 |
  56, 61, 47, 51, 40, 8, 0, 10, 12, 12, 16, 21, 16, 18, 19, 24, 22, 19, 17, 23, 11, 14, 14, 13, 13, 12, 13, 10, 11, 13, 12, 14, 9, 13, 6, 10, 14, 10, 12, 14, 21, 22, 21, 24, 24, 3, 5, 10, 4, 7, 33 |
  60, 68, 54, 58, 47, 4, 15, 0, 4, 9, 26, 28, 24, 28, 28, 34, 32, 29, 26, 33, 19, 21, 21, 20, 19, 21, 22, 19, 21, 22, 22, 24, 19, 23, 16, 20, 23, 19, 22, 22, 30, 30, 30, 32, 32, 11, 15, 18, 13, 15, 41 |
  62, 71, 56, 61, 50, 5, 16, 4, 0, 9, 28, 28, 25, 30, 29, 37, 34, 31, 28, 36, 22, 24, 23, 23, 22, 23, 25, 22, 23, 25, 24, 25, 21, 26, 18, 22, 24, 20, 24, 22, 32, 33, 33, 35, 35, 13, 17, 21, 15, 18, 44 |
  61, 68, 53, 58, 47, 9, 16, 10, 12, 0, 23, 24, 21, 25, 25, 32, 30, 27, 24, 31, 18, 21, 20, 19, 19, 19, 20, 18, 19, 21, 20, 21, 16, 21, 13, 17, 20, 16, 19, 18, 29, 29, 29, 31, 31, 9, 12, 17, 12, 14, 40 |
  55, 55, 42, 46, 36, 27, 16, 26, 28, 23, 0, 14, 11, 5, 8, 13, 11, 10, 13, 13, 16, 15, 19, 17, 18, 13, 11, 12, 11, 13, 4, 4, 8, 7, 11, 7, 8, 10, 5, 13, 17, 19, 14, 20, 17, 17, 12, 14, 15, 16, 27 |
  70, 70, 57, 61, 50, 29, 21, 28, 28, 24, 14, 0, 6, 9, 5, 27, 26, 25, 27, 28, 27, 28, 31, 29, 29, 25, 24, 23, 23, 26, 14, 12, 16, 20, 17, 14, 9, 11, 13, 7, 32, 34, 29, 35, 32, 23, 19, 25, 23, 25, 41 |
  65, 66, 52, 57, 46, 26, 16, 24, 25, 21, 12, 5, 0, 9, 7, 23, 22, 20, 23, 24, 22, 23, 26, 24, 25, 20, 19, 19, 18, 21, 10, 8, 11, 16, 13, 9, 4, 7, 8, 3, 27, 29, 24, 30, 28, 18, 15, 20, 18, 20, 37 |
  58, 57, 44, 48, 38, 29, 18, 28, 30, 25, 5, 10, 8, 0, 3, 14, 13, 13, 16, 16, 19, 19, 22, 20, 22, 16, 14, 15, 14, 16, 6, 5, 10, 10, 13, 8, 7, 10, 6, 12, 20, 22, 17, 23, 20, 19, 15, 17, 18, 19, 29 |
  62, 62, 49, 53, 43, 29, 19, 28, 29, 25, 8, 7, 6, 4, 0, 19, 17, 17, 20, 20, 22, 22, 25, 23, 24, 19, 18, 18, 17, 19, 8, 6, 11, 13, 14, 9, 5, 9, 7, 9, 24, 26, 21, 27, 25, 20, 16, 19, 19, 21, 33 |
  46, 43, 31, 35, 25, 34, 24, 34, 37, 32, 13, 27, 23, 14, 19, 0, 6, 13, 24, 9, 18, 16, 19, 18, 20, 15, 13, 16, 14, 13, 15, 16, 17, 12, 20, 17, 20, 22, 17, 25, 11, 13, 7, 12, 9, 24, 20, 17, 22, 21, 16 |
  46, 45, 32, 36, 26, 32, 22, 32, 34, 30, 11, 26, 22, 13, 17, 6, 0, 8, 18, 5, 16, 14, 17, 16, 18, 13, 11, 14, 12, 11, 14, 14, 15, 9, 18, 15, 18, 20, 15, 23, 10, 12, 6, 12, 9, 22, 18, 15, 20, 18, 16 |
  46, 46, 33, 37, 26, 29, 19, 29, 31, 27, 10, 25, 20, 13, 17, 12, 8, 0, 11, 6, 12, 10, 14, 13, 14, 10, 7, 10, 9, 8, 12, 13, 13, 7, 15, 13, 17, 18, 13, 21, 8, 10, 5, 11, 8, 19, 15, 11, 16, 15, 17 |
  43, 45, 31, 36, 25, 25, 17, 26, 28, 24, 13, 27, 23, 16, 20, 23, 19, 11, 0, 17, 8, 6, 9, 8, 10, 6, 5, 7, 7, 4, 13, 15, 13, 8, 14, 14, 19, 19, 15, 23, 5, 7, 5, 8, 7, 16, 13, 8, 13, 11, 17 |
  44, 42, 29, 33, 23, 33, 23, 33, 36, 31, 13, 28, 24, 16, 20, 8, 4, 7, 16, 0, 16, 14, 17, 16, 18, 14, 12, 14, 13, 12, 16, 17, 17, 11, 19, 18, 21, 22, 17, 25, 8, 10, 5, 10, 7, 23, 19, 15, 21, 19, 14 |
  45, 50, 36, 41, 29, 18, 11, 19, 22, 18, 16, 27, 22, 19, 22, 18, 16, 12, 8, 16, 0, 5, 6, 3, 5, 3, 6, 4, 6, 5, 14, 16, 12, 10, 11, 14, 19, 17, 15, 22, 11, 12, 12, 14, 14, 10, 9, 3, 7, 5, 23 |
  44, 48, 34, 38, 27, 21, 14, 21, 24, 21, 15, 28, 23, 19, 22, 16, 14, 10, 6, 14, 5, 0, 7, 4, 7, 3, 5, 5, 6, 3, 14, 16, 12, 9, 12, 14, 19, 18, 16, 23, 9, 9, 10, 11, 11, 12, 11, 4, 10, 7, 20 |
  42, 48, 34, 38, 27, 20, 14, 21, 23, 20, 19, 31, 26, 22, 25, 19, 17, 14, 9, 17, 7, 6, 0, 5, 4, 6, 9, 8, 9, 7, 17, 20, 15, 13, 14, 17, 22, 21, 19, 25, 11, 11, 13, 12, 14, 13, 13, 7, 10, 8, 21 |
  43, 49, 35, 39, 28, 19, 13, 20, 23, 19, 17, 29, 24, 20, 23, 18, 16, 13, 8, 16, 2, 4, 4, 0, 4, 4, 7, 6, 7, 5, 15, 18, 13, 11, 13, 15, 20, 19, 17, 23, 11, 11, 12, 13, 13, 11, 11, 5, 9, 6, 22 |
  43, 50, 35, 40, 29, 18, 13, 19, 22, 19, 18, 29, 25, 22, 24, 20, 18, 14, 10, 18, 4, 8, 4, 4, 0, 6, 8, 7, 8, 7, 17, 19, 14, 12, 13, 16, 21, 19, 18, 24, 12, 12, 14, 14, 15, 11, 11, 6, 9, 6, 23 |
  46, 50, 36, 40, 29, 20, 12, 21, 23, 19, 13, 25, 20, 16, 19, 15, 13, 10, 6, 14, 3, 3, 6, 4, 6, 0, 6, 4, 6, 8, 12, 14, 10, 7, 10, 12, 17, 15, 13, 20, 10, 11, 10, 13, 12, 11, 9, 3, 8, 6, 22 |
  47, 50, 36, 40, 29, 22, 13, 22, 25, 20, 11, 24, 19, 14, 18, 13, 11, 7, 5, 12, 6, 5, 9, 7, 8, 5, 0, 6, 6, 10, 10, 12, 9, 5, 10, 11, 16, 15, 12, 19, 10, 11, 9, 13, 11, 12, 9, 4, 10, 8, 21 |
  48, 52, 38, 42, 31, 19, 10, 19, 22, 18, 12, 23, 19, 15, 18, 16, 14, 10, 7, 14, 4, 5, 8, 6, 7, 3, 6, 0, 4, 9, 10, 12, 8, 6, 8, 10, 15, 14, 12, 18, 12, 13, 11, 15, 14, 9, 7, 2, 7, 5, 24 |
  48, 51, 37, 42, 31, 20, 11, 21, 23, 19, 11, 23, 18, 14, 17, 14, 12, 9, 7, 13, 6, 6, 9, 7, 8, 7, 5, 5, 0, 11, 9, 11, 7, 5, 8, 9, 14, 13, 10, 18, 11, 13, 10, 14, 13, 10, 7, 4, 8, 7, 23 |
  45, 48, 34, 39, 28, 22, 13, 22, 25, 21, 13, 26, 21, 16, 19, 13, 11, 8, 4, 12, 5, 3, 7, 5, 7, 5, 7, 6, 4, 0, 12, 14, 10, 6, 11, 12, 17, 16, 13, 21, 8, 10, 8, 11, 11, 13, 10, 4, 10, 8, 20 |
  56, 57, 44, 48, 37, 23, 12, 22, 24, 20, 4, 14, 10, 6, 8, 15, 14, 12, 13, 16, 14, 14, 17, 15, 17, 12, 10, 10, 9, 12, 0, 5, 4, 9, 8, 3, 6, 7, 2, 10, 18, 20, 16, 21, 19, 13, 9, 11, 12, 13, 28 |
  58, 58, 45, 49, 39, 25, 14, 24, 25, 21, 4, 12, 8, 5, 6, 16, 14, 13, 15, 17, 16, 16, 20, 18, 19, 14, 12, 12, 11, 14, 9, 0, 9, 14, 14, 4, 4, 7, 2, 9, 20, 22, 17, 23, 20, 15, 11, 14, 14, 15, 30 |
  55, 57, 44, 48, 37, 20, 9, 19, 21, 16, 8, 16, 11, 10, 11, 17, 15, 13, 13, 17, 12, 12, 15, 13, 14, 10, 9, 8, 7, 10, 6, 11, 0, 10, 9, 3, 8, 6, 5, 11, 18, 19, 16, 21, 19, 10, 5, 9, 9, 10, 29 |
  50, 52, 38, 42, 31, 23, 13, 23, 26, 21, 7, 20, 16, 10, 13, 12, 9, 7, 8, 11, 10, 9, 13, 11, 12, 7, 5, 6, 5, 6, 9, 14, 10, 0, 11, 7, 12, 12, 8, 16, 12, 14, 10, 15, 13, 13, 9, 8, 11, 11, 23 |
  55, 59, 45, 49, 38, 17, 6, 16, 18, 13, 11, 17, 13, 13, 14, 20, 18, 15, 14, 19, 11, 12, 14, 13, 13, 10, 10, 8, 8, 11, 10, 14, 7, 15, 0, 5, 10, 7, 7, 11, 19, 20, 18, 22, 20, 7, 3, 8, 6, 8, 30 |
  57, 59, 45, 49, 38, 21, 10, 20, 22, 17, 7, 14, 9, 8, 9, 17, 15, 13, 14, 18, 14, 14, 17, 15, 16, 12, 11, 10, 9, 12, 3, 4, 3, 7, 5, 0, 8, 10, 5, 14, 19, 21, 17, 22, 20, 12, 7, 11, 11, 12, 30 |
  61, 62, 49, 53, 43, 24, 14, 23, 24, 20, 8, 9, 4, 7, 5, 20, 18, 17, 19, 21, 19, 19, 22, 20, 21, 17, 16, 15, 14, 17, 6, 4, 8, 12, 10, 7, 0, 7, 7, 7, 23, 25, 21, 27, 24, 16, 12, 16, 15, 17, 34 |
  61, 63, 49, 54, 43, 20, 10, 19, 20, 16, 10, 11, 7, 10, 9, 22, 20, 18, 19, 22, 17, 18, 21, 19, 19, 15, 15, 14, 13, 16, 7, 7, 6, 12, 7, 8, 9, 0, 9, 7, 23, 25, 21, 26, 25, 12, 9, 14, 12, 15, 34 |
  58, 59, 45, 49, 39, 23, 12, 22, 24, 19, 5, 13, 8, 6, 7, 17, 15, 13, 15, 17, 15, 16, 19, 17, 18, 13, 12, 12, 10, 13, 2, 2, 5, 8, 7, 7, 6, 10, 0, 13, 20, 22, 17, 23, 20, 14, 9, 13, 13, 14, 30 |
  65, 67, 53, 58, 47, 23, 14, 22, 22, 18, 13, 7, 3, 12, 9, 25, 23, 21, 23, 25, 22, 23, 25, 23, 24, 20, 19, 18, 18, 21, 10, 9, 11, 16, 11, 13, 8, 9, 14, 0, 28, 29, 25, 31, 29, 16, 13, 19, 17, 19, 38 |
  39, 41, 27, 31, 20, 29, 21, 30, 32, 29, 17, 32, 27, 20, 24, 11, 10, 8, 5, 8, 11, 9, 11, 11, 12, 10, 10, 12, 11, 8, 18, 20, 18, 12, 19, 19, 23, 23, 20, 28, 0, 4, 5, 3, 5, 20, 18, 12, 18, 15, 12 |
  37, 39, 25, 30, 18, 29, 22, 30, 33, 29, 19, 34, 29, 22, 26, 13, 12, 10, 7, 10, 12, 9, 11, 11, 12, 11, 11, 13, 13, 10, 20, 22, 19, 14, 20, 21, 25, 25, 22, 29, 3, 0, 8, 3, 8, 21, 19, 13, 19, 16, 12 |
  42, 42, 29, 33, 22, 30, 21, 30, 33, 29, 14, 29, 24, 17, 21, 7, 6, 5, 5, 5, 12, 10, 13, 12, 14, 10, 9, 11, 10, 8, 16, 17, 16, 10, 18, 17, 21, 21, 17, 25, 5, 9, 0, 8, 5, 20, 17, 12, 18, 16, 13 |
  36, 38, 24, 28, 17, 31, 24, 32, 35, 31, 20, 35, 30, 23, 27, 12, 12, 11, 8, 10, 14, 11, 12, 13, 14, 13, 13, 15, 14, 11, 21, 23, 21, 15, 22, 22, 27, 26, 23, 31, 3, 5, 7, 0, 7, 23, 21, 15, 20, 18, 10 |
  39, 39, 25, 29, 19, 32, 24, 32, 35, 31, 17, 32, 28, 20, 25, 9, 9, 8, 7, 7, 14, 11, 14, 13, 15, 12, 11, 14, 13, 11, 19, 20, 19, 13, 20, 20, 24, 25, 20, 29, 5, 9, 5, 8, 0, 23, 20, 14, 20, 18, 10 |
  54, 60, 45, 50, 38, 11, 3, 11, 13, 9, 17, 23, 18, 19, 20, 24, 22, 19, 16, 23, 10, 12, 13, 11, 11, 11, 12, 9, 10, 13, 13, 15, 10, 13, 7, 12, 16, 12, 14, 16, 20, 21, 20, 23, 23, 0, 6, 10, 3, 6, 32 |
  54, 58, 44, 48, 37, 15, 5, 15, 17, 12, 12, 19, 15, 15, 16, 20, 18, 15, 13, 19, 9, 11, 13, 11, 11, 9, 9, 7, 7, 10, 9, 11, 5, 9, 3, 7, 12, 9, 9, 13, 18, 19, 17, 21, 20, 5, 0, 6, 4, 7, 30 |
  47, 52, 38, 42, 31, 18, 10, 18, 21, 17, 14, 25, 20, 17, 19, 17, 15, 11, 8, 15, 3, 4, 7, 5, 6, 3, 4, 2, 4, 4, 11, 14, 9, 8, 8, 11, 16, 14, 13, 19, 12, 13, 12, 15, 14, 10, 8, 0, 10, 8, 24 |
  52, 57, 43, 48, 36, 13, 4, 13, 15, 12, 15, 23, 18, 18, 19, 22, 20, 16, 13, 21, 7, 10, 10, 9, 9, 8, 10, 7, 8, 10, 12, 14, 9, 11, 6, 11, 15, 12, 13, 17, 18, 19, 18, 20, 20, 3, 5, 6, 0, 5, 29 |
  49, 54, 40, 45, 33, 14, 7, 15, 18, 14, 16, 25, 20, 19, 21, 21, 18, 15, 11, 19, 5, 7, 8, 6, 6, 6, 8, 5, 7, 8, 13, 15, 10, 11, 8, 12, 17, 15, 14, 19, 15, 16, 16, 18, 18, 6, 10, 7, 6, 0, 27 |
  31, 29, 16, 20, 10, 41, 33, 41, 44, 40, 27, 41, 37, 29, 33, 16, 16, 17, 17, 14, 23, 20, 21, 22, 23, 22, 21, 24, 23, 20, 28, 30, 29, 23, 30, 30, 34, 34, 30, 38, 12, 12, 13, 10, 10, 32, 30, 24, 29, 27, 0 |];

temps_trajet_c3 = 
[|
  0, 10, 12, 11, 15, 80, 77, 83, 86, 84, 77, 97, 90, 81, 86, 64, 64, 64, 60, 61, 62, 60, 58, 60, 60, 63, 65, 66, 67, 62, 77, 80, 76, 69, 76, 78, 85, 84, 80, 90, 54, 51, 58, 49, 53, 74, 74, 65, 71, 67, 43 |
  11, 0, 12, 7, 16, 92, 84, 94, 98, 94, 76, 97, 91, 79, 85, 60, 62, 63, 63, 58, 70, 66, 66, 68, 69, 69, 69, 72, 71, 67, 79, 81, 79, 71, 81, 81, 86, 87, 81, 93, 56, 54, 58, 52, 54, 82, 80, 72, 79, 75, 40 |
  12, 10, 0, 4, 8, 73, 65, 74, 78, 74, 58, 78, 73, 61, 67, 43, 44, 45, 43, 40, 50, 47, 46, 48, 49, 49, 49, 52, 52, 47, 60, 62, 60, 52, 62, 62, 68, 68, 63, 74, 37, 35, 39, 32, 35, 63, 61, 52, 59, 56, 22 |
  10, 7, 7, 0, 10, 79, 71, 81, 85, 80, 64, 84, 78, 67, 73, 48, 49, 51, 49, 46, 56, 53, 53, 54, 55, 56, 55, 58, 58, 54, 66, 68, 66, 58, 68, 68, 73, 74, 68, 80, 43, 41, 45, 39, 41, 69, 67, 58, 66, 62, 27 |
  15, 15, 6, 10, 0, 63, 55, 65, 69, 64, 49, 70, 64, 53, 59, 35, 36, 36, 34, 32, 40, 37, 37, 38, 39, 40, 40, 43, 42, 38, 51, 53, 51, 43, 53, 53, 59, 59, 54, 65, 27, 25, 30, 23, 26, 53, 51, 42, 50, 46, 14 |
  80, 92, 73, 79, 63, 0, 14, 3, 5, 8, 37, 40, 35, 40, 40, 47, 44, 40, 35, 45, 25, 29, 27, 26, 25, 28, 30, 26, 28, 30, 32, 34, 27, 32, 23, 29, 33, 28, 32, 32, 40, 41, 41, 43, 44, 15, 21, 25, 18, 20, 56 |
  77, 84, 65, 71, 55, 9, 0, 12, 13, 13, 22, 28, 22, 25, 26, 33, 30, 26, 23, 32, 16, 19, 20, 18, 17, 16, 17, 14, 15, 19, 17, 19, 12, 18, 8, 14, 19, 14, 17, 20, 29, 31, 29, 33, 32, 4, 6, 13, 6, 10, 46 |
  83, 94, 74, 81, 65, 4, 17, 0, 4, 9, 36, 38, 34, 39, 39, 47, 44, 40, 36, 46, 26, 30, 28, 28, 26, 28, 30, 27, 28, 31, 31, 33, 26, 32, 22, 28, 32, 26, 31, 30, 41, 42, 42, 44, 45, 15, 20, 25, 18, 21, 57 |
  86, 98, 78, 85, 69, 6, 18, 4, 0, 9, 39, 38, 35, 41, 40, 50, 47, 43, 39, 49, 30, 33, 32, 31, 30, 32, 34, 30, 32, 34, 33, 35, 29, 35, 25, 30, 33, 28, 33, 31, 45, 45, 45, 48, 48, 18, 23, 29, 21, 24, 61 |
  84, 94, 74, 80, 64, 9, 17, 10, 12, 0, 32, 33, 29, 34, 34, 44, 41, 37, 34, 43, 25, 28, 28, 27, 25, 26, 28, 24, 26, 29, 27, 29, 23, 29, 18, 24, 27, 22, 27, 25, 40, 41, 40, 43, 43, 12, 17, 24, 16, 19, 56 |
  77, 76, 58, 64, 49, 37, 22, 36, 39, 32, 0, 16, 13, 6, 9, 17, 15, 14, 18, 18, 22, 21, 26, 23, 25, 18, 15, 17, 14, 17, 6, 5, 10, 9, 15, 9, 11, 14, 7, 17, 24, 27, 20, 28, 24, 23, 17, 19, 21, 22, 37 |
  97, 97, 78, 84, 70, 40, 28, 38, 38, 33, 15, 0, 6, 10, 6, 37, 35, 34, 38, 39, 37, 38, 42, 40, 41, 35, 33, 32, 31, 35, 20, 17, 22, 28, 24, 19, 12, 15, 17, 9, 44, 46, 40, 48, 44, 31, 27, 34, 31, 34, 57 |
  90, 91, 73, 78, 64, 35, 22, 34, 35, 29, 12, 6, 0, 9, 8, 32, 30, 28, 31, 33, 31, 32, 36, 33, 34, 28, 26, 26, 24, 29, 13, 11, 15, 21, 17, 13, 6, 9, 11, 5, 37, 40, 34, 42, 38, 25, 20, 27, 25, 28, 51 |
  81, 79, 61, 67, 53, 40, 25, 39, 41, 34, 5, 12, 10, 0, 3, 20, 18, 18, 23, 21, 26, 26, 31, 28, 30, 23, 20, 21, 19, 22, 9, 6, 13, 14, 18, 11, 10, 14, 8, 16, 28, 31, 23, 32, 28, 26, 20, 23, 25, 26, 40 |
  86, 85, 67, 73, 59, 40, 26, 39, 40, 34, 8, 8, 7, 3, 0, 26, 24, 23, 28, 28, 30, 30, 35, 32, 34, 27, 24, 25, 23, 27, 11, 8, 15, 18, 19, 13, 7, 13, 10, 12, 33, 36, 29, 38, 34, 28, 22, 27, 27, 29, 46 |
  64, 60, 43, 48, 35, 47, 33, 47, 50, 44, 17, 37, 32, 20, 26, 0, 6, 14, 25, 10, 24, 21, 26, 25, 27, 21, 18, 22, 20, 18, 21, 22, 24, 16, 27, 24, 28, 30, 23, 34, 15, 17, 10, 17, 12, 33, 28, 23, 30, 28, 21 |
  64, 62, 44, 49, 36, 44, 30, 44, 47, 41, 15, 35, 30, 18, 24, 6, 0, 9, 19, 5, 22, 19, 24, 22, 24, 18, 15, 19, 17, 15, 19, 20, 21, 13, 24, 21, 25, 27, 21, 32, 13, 16, 8, 16, 12, 30, 25, 20, 27, 25, 23 |
  64, 63, 45, 51, 36, 40, 26, 40, 43, 37, 14, 34, 28, 18, 23, 12, 8, 0, 13, 7, 17, 14, 19, 17, 20, 13, 10, 14, 12, 11, 16, 18, 17, 9, 20, 18, 23, 24, 18, 30, 11, 14, 6, 15, 11, 26, 21, 16, 22, 21, 24 |
  60, 63, 43, 49, 34, 35, 23, 36, 39, 34, 18, 38, 31, 23, 28, 23, 19, 11, 0, 16, 11, 7, 12, 11, 13, 8, 6, 10, 9, 5, 18, 21, 18, 10, 19, 20, 26, 26, 21, 32, 7, 9, 7, 11, 10, 22, 18, 11, 18, 16, 23 |
  61, 58, 40, 46, 32, 45, 32, 46, 49, 43, 18, 39, 33, 21, 28, 8, 4, 7, 17, 0, 22, 19, 23, 22, 24, 19, 16, 20, 18, 16, 22, 23, 23, 15, 27, 24, 28, 30, 24, 35, 11, 14, 7, 14, 9, 32, 27, 21, 28, 26, 19 |
  62, 70, 50, 56, 40, 25, 16, 26, 30, 25, 22, 37, 31, 26, 30, 24, 22, 17, 11, 22, 0, 5, 6, 3, 5, 4, 8, 6, 8, 7, 19, 22, 16, 13, 15, 19, 26, 23, 21, 30, 16, 16, 17, 19, 19, 13, 13, 4, 10, 6, 32 |
  60, 66, 47, 53, 37, 29, 19, 30, 33, 28, 21, 38, 32, 26, 30, 21, 19, 14, 7, 19, 5, 0, 7, 4, 7, 4, 6, 6, 8, 4, 19, 22, 17, 12, 17, 20, 27, 25, 21, 31, 12, 13, 13, 15, 16, 17, 15, 6, 13, 10, 28 |
  58, 66, 46, 53, 37, 27, 20, 28, 32, 28, 26, 42, 36, 31, 35, 26, 24, 19, 12, 23, 6, 6, 0, 4, 4, 9, 12, 11, 12, 10, 24, 27, 21, 18, 20, 24, 31, 28, 26, 35, 15, 14, 17, 17, 19, 17, 18, 9, 14, 10, 30 |
  60, 68, 48, 54, 38, 26, 18, 28, 31, 27, 23, 40, 33, 28, 32, 25, 22, 17, 11, 22, 2, 4, 4, 0, 4, 6, 9, 8, 10, 7, 21, 24, 18, 15, 17, 21, 28, 26, 23, 32, 14, 15, 16, 17, 18, 15, 15, 6, 12, 8, 30 |
  60, 69, 49, 55, 39, 25, 17, 26, 30, 25, 25, 41, 34, 30, 34, 27, 24, 20, 13, 24, 4, 8, 5, 4, 0, 8, 11, 9, 12, 10, 23, 26, 19, 17, 18, 22, 29, 26, 25, 33, 17, 17, 19, 19, 20, 15, 15, 8, 12, 8, 32 |
  63, 69, 49, 56, 40, 28, 16, 28, 32, 26, 18, 35, 28, 23, 27, 21, 18, 13, 8, 19, 4, 4, 9, 6, 8, 0, 6, 4, 6, 9, 16, 19, 13, 10, 13, 16, 23, 21, 18, 28, 14, 15, 14, 18, 17, 15, 12, 3, 11, 8, 30 |
  65, 69, 49, 55, 40, 30, 17, 30, 34, 28, 15, 33, 26, 20, 24, 18, 15, 10, 6, 16, 8, 6, 12, 9, 11, 5, 0, 6, 7, 11, 14, 17, 12, 6, 13, 14, 21, 20, 16, 26, 13, 15, 12, 17, 16, 16, 12, 6, 13, 11, 29 |
  66, 72, 52, 58, 43, 26, 14, 27, 30, 24, 17, 32, 26, 21, 25, 22, 19, 14, 10, 20, 6, 6, 11, 8, 9, 3, 7, 0, 4, 10, 14, 17, 11, 9, 11, 14, 21, 19, 16, 25, 16, 18, 16, 20, 19, 13, 9, 2, 9, 7, 32 |
  67, 71, 52, 58, 42, 28, 15, 28, 32, 26, 14, 31, 24, 19, 23, 20, 17, 12, 9, 18, 8, 8, 12, 10, 12, 7, 5, 5, 0, 12, 12, 15, 10, 6, 11, 12, 20, 18, 14, 24, 15, 18, 14, 20, 18, 14, 10, 5, 11, 9, 32 |
  62, 67, 47, 54, 38, 30, 19, 31, 34, 29, 17, 35, 29, 22, 27, 18, 15, 11, 5, 16, 7, 4, 10, 7, 10, 6, 6, 5, 4, 0, 16, 19, 14, 9, 15, 17, 24, 22, 18, 29, 11, 13, 11, 15, 14, 17, 14, 6, 14, 11, 28 |
  77, 79, 60, 66, 51, 32, 17, 31, 33, 27, 6, 20, 13, 9, 11, 21, 19, 16, 18, 22, 19, 19, 24, 21, 23, 16, 14, 14, 12, 16, 0, 5, 5, 10, 9, 3, 8, 9, 3, 14, 25, 27, 21, 29, 26, 18, 12, 16, 17, 18, 39 |
  80, 81, 62, 68, 53, 34, 19, 33, 35, 29, 5, 17, 11, 6, 8, 22, 20, 18, 21, 23, 22, 22, 27, 24, 26, 19, 17, 17, 15, 19, 11, 0, 11, 17, 16, 5, 6, 9, 3, 13, 27, 30, 23, 31, 28, 21, 15, 19, 20, 21, 41 |
  76, 79, 60, 66, 51, 27, 12, 26, 29, 23, 10, 22, 15, 13, 15, 24, 21, 17, 18, 23, 16, 17, 21, 18, 19, 13, 12, 11, 10, 14, 6, 11, 0, 11, 10, 3, 11, 8, 6, 15, 24, 27, 22, 29, 26, 14, 7, 12, 12, 14, 40 |
  69, 71, 52, 58, 43, 32, 18, 32, 35, 29, 9, 28, 21, 14, 18, 16, 13, 9, 10, 15, 13, 12, 18, 15, 17, 10, 6, 9, 6, 9, 12, 17, 11, 0, 11, 10, 16, 16, 11, 22, 17, 19, 14, 21, 18, 18, 13, 11, 15, 15, 32 |
  76, 81, 62, 68, 53, 23, 8, 22, 25, 18, 15, 24, 17, 18, 19, 27, 24, 20, 19, 27, 15, 17, 20, 17, 18, 13, 13, 11, 11, 15, 11, 16, 8, 15, 0, 7, 13, 9, 10, 16, 26, 28, 24, 30, 28, 9, 3, 12, 9, 11, 42 |
  78, 81, 62, 68, 53, 29, 14, 28, 30, 24, 9, 19, 13, 11, 13, 24, 21, 18, 20, 24, 19, 20, 24, 21, 22, 16, 14, 14, 12, 17, 3, 5, 3, 10, 7, 0, 9, 10, 5, 15, 26, 29, 23, 30, 28, 16, 10, 15, 15, 17, 41 |
  85, 86, 68, 73, 59, 33, 19, 32, 33, 27, 11, 12, 6, 10, 7, 28, 25, 23, 26, 28, 26, 27, 31, 28, 29, 23, 21, 21, 20, 24, 8, 6, 11, 16, 13, 8, 0, 6, 6, 7, 32, 35, 29, 37, 33, 22, 16, 22, 21, 24, 47 |
  84, 87, 68, 74, 59, 28, 14, 26, 28, 22, 14, 15, 9, 14, 13, 30, 27, 24, 26, 30, 23, 25, 28, 26, 26, 21, 20, 19, 18, 22, 9, 9, 8, 16, 9, 8, 8, 0, 8, 7, 32, 34, 29, 36, 34, 17, 12, 20, 17, 20, 47 |
  80, 81, 63, 68, 54, 32, 17, 31, 33, 27, 7, 17, 11, 8, 10, 23, 21, 18, 21, 24, 21, 21, 26, 23, 25, 18, 16, 16, 14, 18, 3, 3, 6, 11, 10, 7, 7, 12, 0, 14, 27, 30, 24, 31, 28, 19, 13, 18, 18, 19, 41 |
  90, 93, 74, 80, 65, 32, 20, 30, 31, 25, 17, 9, 5, 16, 12, 34, 32, 30, 32, 35, 30, 31, 35, 32, 33, 28, 26, 25, 24, 29, 14, 13, 15, 22, 16, 12, 8, 8, 12, 0, 38, 41, 35, 42, 39, 23, 18, 26, 23, 26, 53 |
  54, 56, 37, 43, 27, 40, 29, 41, 45, 40, 24, 44, 37, 28, 33, 15, 13, 11, 7, 11, 16, 12, 15, 14, 17, 14, 13, 16, 15, 11, 25, 27, 24, 17, 26, 26, 32, 32, 27, 38, 0, 5, 4, 4, 4, 28, 25, 17, 24, 21, 17 |
  51, 54, 35, 41, 25, 41, 31, 42, 45, 41, 27, 46, 40, 31, 36, 17, 16, 14, 9, 14, 16, 13, 14, 15, 17, 15, 15, 18, 18, 13, 27, 30, 27, 19, 28, 29, 35, 34, 30, 41, 4, 0, 8, 3, 8, 29, 27, 18, 26, 22, 16 |
  58, 58, 39, 45, 30, 41, 29, 42, 45, 40, 20, 40, 34, 23, 29, 10, 8, 6, 7, 7, 17, 13, 17, 16, 19, 14, 12, 16, 14, 11, 21, 23, 22, 14, 24, 23, 29, 29, 24, 35, 6, 10, 0, 9, 5, 28, 24, 17, 24, 22, 18 |
  49, 52, 32, 39, 23, 43, 33, 44, 48, 43, 28, 48, 42, 32, 38, 17, 16, 15, 11, 14, 19, 15, 17, 17, 19, 18, 17, 20, 20, 15, 29, 31, 29, 21, 30, 30, 37, 36, 31, 42, 3, 6, 7, 0, 7, 32, 29, 20, 28, 25, 13 |
  53, 54, 35, 41, 26, 44, 32, 45, 48, 43, 24, 44, 38, 28, 34, 12, 12, 11, 10, 9, 19, 16, 19, 18, 20, 17, 16, 19, 18, 14, 26, 28, 26, 18, 28, 28, 33, 34, 28, 39, 5, 10, 4, 9, 0, 31, 28, 20, 28, 25, 14 |
  74, 82, 63, 69, 53, 15, 4, 15, 18, 12, 23, 31, 25, 26, 28, 33, 30, 26, 22, 32, 13, 17, 17, 15, 15, 15, 16, 13, 14, 17, 18, 21, 14, 18, 9, 16, 22, 17, 19, 23, 28, 29, 28, 32, 31, 0, 7, 10, 3, 7, 44 |
  74, 80, 61, 67, 51, 21, 6, 20, 23, 17, 17, 27, 20, 20, 22, 28, 25, 21, 18, 27, 13, 15, 18, 15, 15, 12, 12, 9, 10, 14, 12, 15, 7, 13, 3, 10, 16, 12, 13, 18, 25, 27, 24, 29, 28, 5, 0, 6, 4, 7, 41 |
  65, 72, 52, 58, 42, 25, 13, 25, 29, 24, 19, 34, 27, 23, 27, 23, 20, 16, 11, 21, 4, 6, 9, 6, 8, 3, 6, 2, 5, 6, 16, 19, 12, 11, 12, 15, 22, 20, 18, 26, 17, 18, 17, 20, 20, 12, 9, 0, 11, 8, 33 |
  71, 79, 59, 66, 50, 18, 6, 18, 21, 16, 21, 31, 25, 25, 27, 30, 27, 22, 18, 28, 10, 13, 14, 12, 12, 11, 13, 9, 11, 14, 17, 20, 12, 15, 9, 15, 21, 17, 18, 23, 24, 26, 24, 28, 28, 3, 5, 7, 0, 5, 41 |
  67, 75, 56, 62, 46, 20, 10, 21, 24, 19, 22, 34, 28, 26, 29, 28, 25, 21, 16, 26, 6, 10, 10, 8, 8, 8, 11, 7, 9, 11, 18, 21, 14, 15, 11, 17, 24, 20, 19, 26, 21, 22, 22, 25, 25, 6, 10, 7, 6, 0, 37 |
  43, 40, 22, 27, 14, 56, 46, 57, 61, 56, 37, 57, 51, 40, 46, 21, 23, 24, 23, 19, 32, 28, 30, 30, 32, 30, 29, 32, 32, 28, 39, 41, 40, 32, 42, 41, 47, 47, 41, 53, 17, 16, 18, 13, 14, 44, 41, 33, 41, 37, 0 |];

% Matrice temps pondérée (pour initialisation fenêtres)
temps_trajet = 
[|
  0, 10, 13, 11, 15, 63, 60, 65, 67, 66, 60, 76, 70, 63, 67, 50, 50, 50, 47, 48, 49, 47, 45, 47, 47, 50, 51, 52, 52, 49, 61, 63, 60, 54, 60, 62, 67, 66, 63, 70, 42, 40, 45, 38, 42, 58, 58, 51, 56, 53, 34 |
  11, 0, 12, 7, 15, 72, 66, 74, 77, 73, 60, 76, 71, 62, 67, 47, 49, 50, 49, 46, 55, 52, 52, 53, 54, 54, 54, 56, 55, 52, 62, 63, 62, 56, 64, 64, 67, 68, 64, 72, 44, 42, 46, 41, 42, 64, 63, 56, 62, 59, 31 |
  12, 10, 0, 4, 8, 57, 51, 58, 61, 58, 45, 62, 57, 48, 53, 33, 35, 35, 34, 31, 39, 37, 36, 38, 38, 39, 38, 41, 41, 37, 47, 49, 47, 41, 49, 49, 53, 53, 49, 58, 29, 27, 31, 25, 27, 49, 48, 41, 47, 44, 17 |
  10, 7, 7, 0, 10, 62, 55, 63, 66, 63, 50, 66, 61, 52, 57, 38, 38, 40, 39, 36, 44, 41, 41, 42, 43, 44, 43, 45, 45, 42, 52, 53, 52, 46, 53, 53, 57, 58, 53, 63, 34, 32, 36, 30, 32, 54, 52, 46, 52, 49, 22 |
  15, 15, 6, 10, 0, 50, 43, 51, 54, 50, 38, 55, 50, 41, 46, 27, 28, 28, 27, 25, 31, 29, 29, 30, 31, 31, 31, 33, 33, 30, 40, 42, 40, 34, 41, 41, 46, 46, 42, 51, 22, 20, 24, 18, 20, 41, 40, 33, 39, 36, 11 |
  63, 72, 57, 62, 50, 0, 14, 3, 5, 7, 29, 31, 28, 31, 31, 37, 35, 31, 27, 36, 20, 23, 21, 21, 19, 22, 24, 21, 22, 24, 25, 27, 21, 25, 18, 23, 26, 22, 25, 25, 31, 32, 32, 34, 34, 12, 16, 19, 14, 16, 44 |
  60, 66, 51, 55, 43, 8, 0, 10, 12, 12, 17, 22, 17, 19, 20, 26, 24, 21, 18, 25, 12, 15, 16, 14, 14, 13, 14, 11, 12, 15, 13, 15, 10, 14, 6, 11, 15, 11, 13, 16, 23, 24, 23, 26, 25, 3, 5, 10, 5, 8, 36 |
  65, 74, 58, 63, 51, 4, 16, 0, 4, 9, 28, 30, 26, 30, 30, 37, 35, 31, 28, 36, 20, 23, 22, 22, 20, 22, 24, 21, 22, 24, 24, 26, 21, 25, 17, 22, 25, 21, 24, 24, 32, 33, 33, 35, 35, 12, 16, 20, 14, 16, 44 |
  67, 77, 61, 66, 54, 5, 17, 4, 0, 9, 30, 30, 27, 32, 31, 40, 37, 34, 30, 38, 24, 26, 25, 24, 24, 25, 27, 24, 25, 27, 26, 27, 23, 28, 19, 24, 26, 22, 26, 24, 35, 36, 36, 38, 38, 14, 18, 23, 16, 19, 48 |
  66, 73, 58, 63, 50, 9, 16, 10, 12, 0, 25, 26, 23, 27, 27, 35, 32, 29, 26, 34, 19, 22, 22, 21, 20, 21, 22, 19, 20, 23, 21, 23, 18, 23, 14, 19, 22, 17, 21, 20, 31, 32, 31, 34, 34, 10, 13, 19, 12, 15, 44 |
  60, 60, 45, 50, 38, 29, 17, 28, 30, 25, 0, 14, 11, 5, 8, 14, 12, 11, 14, 14, 17, 16, 21, 18, 20, 14, 12, 13, 11, 14, 5, 4, 8, 7, 12, 7, 9, 11, 5, 14, 19, 21, 16, 22, 19, 18, 13, 15, 16, 17, 29 |
  76, 76, 62, 66, 55, 31, 22, 30, 30, 26, 14, 0, 6, 9, 5, 29, 28, 27, 30, 30, 29, 30, 33, 31, 32, 27, 26, 25, 24, 28, 16, 13, 17, 22, 19, 15, 10, 12, 14, 7, 34, 36, 31, 38, 35, 24, 21, 26, 24, 27, 45 |
  70, 71, 57, 61, 50, 28, 17, 26, 27, 23, 12, 5, 0, 9, 8, 25, 24, 22, 24, 26, 24, 25, 28, 26, 27, 22, 21, 20, 19, 23, 10, 9, 12, 17, 14, 10, 5, 7, 9, 4, 29, 31, 26, 33, 30, 20, 16, 22, 20, 22, 40 |
  63, 62, 48, 52, 41, 31, 19, 30, 32, 27, 5, 10, 8, 0, 3, 16, 14, 14, 18, 17, 21, 20, 24, 22, 24, 18, 16, 16, 15, 17, 7, 5, 10, 11, 14, 9, 8, 11, 7, 13, 22, 24, 18, 25, 22, 21, 16, 18, 19, 20, 31 |
  67, 67, 53, 57, 46, 31, 20, 30, 31, 27, 8, 7, 6, 3, 0, 20, 19, 18, 22, 22, 24, 24, 27, 25, 26, 21, 19, 19, 18, 21, 9, 6, 12, 14, 15, 10, 5, 10, 8, 10, 26, 28, 23, 30, 26, 22, 17, 21, 21, 23, 36 |
  50, 47, 33, 38, 27, 37, 26, 37, 40, 35, 14, 29, 25, 16, 20, 0, 6, 13, 23, 9, 19, 17, 21, 19, 21, 16, 14, 17, 16, 14, 16, 17, 19, 12, 22, 19, 22, 24, 18, 27, 12, 14, 8, 13, 10, 26, 22, 18, 24, 22, 17 |
  50, 49, 35, 38, 28, 35, 24, 35, 37, 32, 12, 28, 24, 14, 19, 6, 0, 8, 18, 5, 17, 15, 19, 17, 19, 14, 12, 15, 13, 12, 15, 16, 16, 10, 19, 16, 20, 22, 16, 25, 10, 13, 7, 13, 10, 24, 19, 16, 21, 20, 18 |
  50, 50, 35, 40, 28, 31, 21, 31, 34, 29, 11, 27, 22, 14, 18, 12, 8, 0, 11, 6, 13, 11, 15, 14, 16, 10, 8, 11, 10, 9, 12, 14, 14, 7, 16, 14, 18, 19, 14, 23, 9, 11, 5, 12, 9, 20, 16, 12, 17, 16, 19 |
  47, 49, 34, 39, 27, 27, 18, 28, 30, 26, 14, 30, 24, 18, 22, 22, 18, 11, 0, 16, 9, 6, 10, 9, 10, 6, 5, 8, 7, 4, 14, 16, 14, 8, 15, 16, 21, 20, 16, 25, 5, 8, 5, 9, 8, 17, 14, 9, 14, 12, 18 |
  48, 46, 31, 36, 25, 36, 25, 36, 38, 34, 14, 30, 26, 17, 22, 8, 4, 7, 16, 0, 17, 15, 18, 17, 19, 15, 12, 16, 14, 12, 17, 18, 18, 12, 21, 19, 22, 24, 19, 27, 9, 11, 5, 11, 7, 25, 21, 16, 22, 21, 15 |
  49, 55, 39, 44, 31, 20, 12, 20, 24, 19, 17, 29, 24, 21, 24, 19, 17, 13, 9, 17, 0, 5, 6, 3, 5, 3, 6, 5, 6, 5, 15, 17, 12, 10, 12, 15, 20, 18, 16, 24, 12, 13, 13, 15, 15, 10, 10, 3, 8, 5, 25 |
  47, 52, 37, 41, 29, 23, 15, 23, 26, 22, 16, 30, 25, 20, 24, 17, 15, 11, 6, 15, 5, 0, 7, 4, 7, 3, 5, 5, 6, 3, 15, 17, 13, 10, 13, 16, 21, 19, 17, 24, 10, 10, 10, 12, 12, 13, 12, 5, 10, 8, 22 |
  45, 52, 36, 41, 29, 21, 16, 22, 25, 22, 21, 33, 28, 24, 27, 21, 19, 15, 10, 18, 7, 6, 0, 5, 4, 7, 10, 9, 10, 8, 19, 21, 16, 14, 16, 19, 24, 22, 20, 27, 12, 11, 14, 13, 15, 14, 14, 7, 11, 8, 23 |
  47, 53, 38, 42, 30, 21, 14, 22, 24, 21, 18, 31, 26, 22, 25, 19, 17, 14, 9, 17, 2, 4, 4, 0, 4, 5, 7, 6, 8, 6, 16, 19, 14, 12, 14, 16, 22, 20, 18, 25, 11, 12, 13, 14, 14, 12, 12, 5, 10, 6, 24 |
  47, 54, 38, 43, 31, 19, 14, 20, 24, 20, 20, 32, 27, 24, 26, 21, 19, 16, 10, 19, 4, 8, 4, 4, 0, 6, 9, 8, 9, 8, 18, 20, 15, 13, 14, 17, 23, 21, 19, 26, 13, 13, 15, 15, 16, 12, 12, 6, 10, 6, 25 |
  50, 54, 39, 44, 31, 22, 13, 22, 25, 21, 14, 27, 22, 18, 21, 16, 14, 10, 6, 15, 3, 3, 7, 5, 6, 0, 6, 4, 6, 8, 12, 15, 10, 8, 10, 13, 18, 16, 14, 22, 11, 12, 11, 14, 13, 12, 10, 3, 9, 7, 24 |
  51, 54, 38, 43, 31, 24, 14, 24, 27, 22, 12, 26, 21, 16, 19, 14, 12, 8, 5, 12, 6, 5, 10, 7, 9, 5, 0, 6, 6, 10, 11, 13, 10, 5, 10, 11, 17, 16, 12, 21, 10, 12, 10, 14, 12, 13, 10, 5, 10, 9, 23 |
  52, 56, 41, 45, 33, 21, 11, 21, 24, 19, 13, 25, 20, 16, 19, 17, 15, 11, 8, 16, 5, 5, 9, 6, 8, 3, 6, 0, 4, 9, 11, 13, 9, 7, 9, 11, 16, 15, 12, 20, 13, 14, 12, 16, 15, 10, 7, 2, 7, 6, 25 |
  52, 55, 41, 45, 33, 22, 12, 22, 25, 20, 11, 24, 19, 15, 18, 16, 13, 10, 7, 14, 6, 6, 10, 8, 9, 7, 5, 5, 0, 10, 10, 12, 8, 5, 9, 10, 16, 14, 11, 19, 12, 14, 11, 16, 14, 11, 8, 4, 9, 8, 25 |
  49, 52, 37, 42, 30, 24, 15, 24, 27, 23, 14, 28, 23, 17, 21, 14, 12, 9, 4, 12, 5, 3, 8, 6, 8, 5, 6, 5, 4, 0, 13, 15, 11, 7, 12, 13, 19, 17, 14, 23, 9, 10, 9, 12, 11, 14, 11, 5, 11, 9, 22 |
  61, 62, 47, 52, 40, 25, 13, 24, 26, 21, 5, 16, 10, 7, 9, 16, 15, 12, 14, 17, 15, 15, 19, 16, 18, 12, 11, 11, 10, 13, 0, 5, 4, 9, 8, 3, 6, 7, 2, 11, 19, 22, 17, 23, 20, 14, 10, 12, 13, 14, 30 |
  63, 63, 49, 53, 42, 27, 15, 26, 27, 23, 4, 13, 9, 5, 6, 17, 16, 14, 16, 18, 17, 17, 21, 19, 20, 15, 13, 13, 12, 15, 9, 0, 10, 15, 14, 4, 5, 7, 2, 10, 21, 24, 18, 24, 22, 16, 12, 15, 16, 16, 32 |
  60, 62, 47, 52, 40, 21, 10, 21, 23, 18, 8, 17, 12, 10, 12, 19, 16, 14, 14, 18, 12, 13, 16, 14, 15, 10, 10, 9, 8, 11, 6, 11, 0, 10, 10, 3, 9, 7, 5, 12, 19, 21, 17, 23, 21, 11, 6, 10, 10, 11, 31 |
  54, 56, 41, 46, 34, 25, 14, 25, 28, 23, 7, 22, 17, 11, 14, 12, 10, 7, 8, 12, 10, 10, 14, 12, 13, 8, 5, 7, 5, 7, 10, 15, 10, 0, 11, 8, 13, 13, 9, 17, 13, 15, 11, 16, 14, 14, 10, 9, 12, 12, 25 |
  60, 64, 49, 53, 41, 18, 6, 17, 19, 14, 12, 19, 14, 14, 15, 22, 19, 16, 15, 21, 12, 13, 16, 14, 14, 10, 10, 9, 9, 12, 10, 14, 8, 15, 0, 5, 10, 7, 8, 12, 20, 22, 19, 24, 22, 8, 3, 9, 7, 9, 33 |
  62, 64, 49, 53, 41, 23, 11, 22, 24, 19, 7, 15, 10, 9, 10, 19, 16, 14, 16, 19, 15, 16, 19, 16, 17, 13, 11, 11, 10, 13, 3, 4, 3, 8, 5, 0, 8, 10, 5, 14, 21, 23, 18, 24, 22, 12, 8, 12, 12, 13, 32 |
  67, 67, 53, 57, 46, 26, 15, 25, 26, 22, 9, 10, 5, 8, 5, 22, 20, 18, 21, 22, 20, 21, 24, 22, 23, 18, 17, 16, 16, 19, 6, 5, 9, 13, 10, 8, 0, 6, 6, 7, 25, 27, 23, 29, 26, 17, 13, 17, 16, 19, 37 |
  66, 68, 53, 58, 46, 22, 11, 21, 22, 17, 11, 12, 7, 11, 10, 24, 22, 19, 20, 24, 18, 19, 22, 20, 21, 16, 16, 15, 14, 17, 7, 7, 7, 13, 7, 8, 9, 0, 9, 7, 25, 27, 23, 28, 27, 13, 10, 16, 13, 16, 37 |
  63, 64, 49, 53, 42, 25, 13, 24, 26, 21, 5, 14, 9, 7, 8, 18, 16, 14, 16, 19, 16, 17, 20, 18, 19, 14, 12, 12, 11, 14, 2, 2, 5, 9, 8, 7, 6, 10, 0, 13, 21, 24, 19, 24, 22, 15, 10, 14, 14, 15, 32 |
  70, 72, 58, 63, 51, 25, 16, 24, 24, 20, 14, 7, 4, 13, 10, 27, 25, 23, 25, 27, 24, 24, 27, 25, 26, 22, 21, 20, 19, 23, 11, 10, 12, 17, 12, 12, 8, 8, 13, 0, 30, 32, 27, 33, 31, 18, 14, 21, 18, 21, 41 |
  42, 44, 29, 34, 22, 31, 23, 32, 35, 31, 19, 34, 29, 22, 26, 12, 10, 9, 5, 9, 12, 10, 12, 11, 13, 11, 10, 13, 12, 9, 19, 21, 19, 13, 20, 21, 25, 25, 21, 30, 0, 4, 5, 3, 5, 22, 19, 13, 19, 16, 13 |
  40, 42, 27, 32, 20, 32, 24, 33, 36, 32, 21, 36, 31, 24, 28, 14, 13, 11, 8, 11, 13, 10, 11, 12, 13, 12, 12, 14, 14, 10, 22, 24, 21, 15, 22, 23, 27, 27, 24, 32, 3, 0, 8, 3, 8, 23, 21, 14, 20, 17, 12 |
  45, 46, 31, 36, 24, 32, 23, 33, 36, 31, 16, 31, 26, 18, 23, 8, 7, 5, 5, 5, 13, 10, 14, 13, 15, 11, 10, 12, 11, 9, 17, 18, 17, 11, 19, 18, 23, 23, 19, 27, 5, 9, 0, 8, 5, 22, 19, 13, 19, 17, 14 |
  38, 41, 25, 30, 18, 34, 26, 35, 38, 34, 22, 38, 33, 25, 30, 13, 13, 12, 9, 11, 15, 12, 13, 14, 15, 14, 14, 16, 16, 12, 23, 24, 23, 16, 24, 24, 29, 28, 24, 33, 3, 5, 7, 0, 7, 25, 23, 16, 22, 19, 10 |
  42, 42, 27, 32, 20, 34, 25, 35, 38, 34, 19, 35, 30, 22, 26, 10, 10, 9, 8, 7, 15, 12, 15, 14, 16, 13, 12, 15, 14, 11, 20, 22, 21, 14, 22, 22, 26, 27, 22, 31, 5, 9, 4, 8, 0, 24, 22, 16, 22, 19, 11 |
  58, 64, 49, 54, 41, 12, 3, 12, 14, 10, 18, 24, 20, 21, 22, 26, 24, 20, 17, 25, 10, 13, 14, 12, 12, 12, 13, 10, 11, 14, 14, 16, 11, 14, 8, 12, 17, 13, 15, 18, 22, 23, 22, 25, 24, 0, 6, 10, 3, 6, 35 |
  58, 63, 48, 52, 40, 16, 5, 16, 18, 13, 13, 21, 16, 16, 17, 22, 19, 16, 14, 21, 10, 12, 14, 12, 12, 10, 10, 7, 8, 11, 10, 12, 6, 10, 3, 8, 13, 10, 10, 14, 19, 21, 19, 23, 22, 5, 0, 6, 4, 7, 32 |
  51, 56, 41, 46, 33, 19, 10, 20, 23, 19, 15, 26, 22, 18, 21, 18, 16, 12, 9, 16, 3, 5, 7, 5, 6, 3, 5, 2, 4, 5, 12, 15, 10, 9, 9, 12, 17, 16, 14, 21, 13, 14, 13, 16, 16, 11, 8, 0, 10, 8, 26 |
  56, 62, 47, 52, 39, 14, 5, 14, 16, 12, 16, 24, 20, 19, 21, 24, 21, 17, 14, 22, 8, 10, 11, 10, 10, 9, 10, 7, 9, 11, 13, 16, 10, 12, 7, 12, 16, 13, 14, 18, 19, 20, 19, 22, 22, 3, 5, 6, 0, 5, 32 |
  53, 59, 44, 49, 36, 16, 8, 16, 19, 15, 17, 27, 22, 20, 23, 22, 20, 16, 12, 21, 5, 8, 8, 6, 6, 7, 9, 6, 8, 9, 14, 16, 11, 12, 9, 13, 19, 16, 15, 21, 16, 17, 17, 19, 19, 6, 10, 7, 6, 0, 29 |
  34, 31, 17, 22, 11, 44, 36, 44, 48, 44, 29, 45, 40, 31, 36, 17, 18, 19, 18, 15, 25, 22, 23, 24, 25, 24, 23, 25, 25, 22, 30, 32, 31, 25, 33, 32, 37, 37, 32, 41, 13, 12, 14, 10, 11, 35, 32, 26, 32, 29, 0 |];

% acces_autorise[v, c] : 1=autorisé, 0=interdit
% tier1 (médina stricte) : triporteur uniquement
% tier2 (proche médina)  : triporteur + fourgonnette, camion interdit
acces_autorise = 
[|
  1, 1, 1, 1, 1, 1, 1, 1, 1, 1, 1, 1, 1, 1, 1, 1, 1, 1, 1, 1, 1, 1, 1, 1, 1, 1, 1, 1, 1, 1, 1, 1, 1, 1, 1, 1, 1, 1, 1, 1, 1, 1, 1, 1, 1, 1, 1, 1, 1, 1 |
  1, 1, 1, 1, 1, 1, 1, 1, 1, 1, 1, 1, 1, 1, 1, 1, 1, 1, 1, 1, 1, 1, 1, 1, 1, 1, 1, 1, 1, 1, 1, 1, 1, 1, 1, 1, 1, 1, 1, 1, 1, 1, 1, 1, 1, 1, 1, 1, 1, 1 |
  1, 1, 1, 1, 1, 1, 1, 1, 1, 1, 1, 1, 1, 1, 1, 1, 1, 1, 1, 1, 1, 1, 1, 1, 1, 1, 1, 1, 1, 1, 1, 1, 1, 1, 1, 1, 1, 1, 1, 1, 1, 1, 1, 1, 1, 1, 1, 1, 1, 1 |
  1, 1, 1, 1, 1, 1, 1, 1, 1, 1, 1, 1, 1, 1, 1, 1, 1, 1, 1, 1, 1, 1, 1, 1, 1, 1, 1, 1, 1, 1, 1, 1, 1, 1, 1, 1, 1, 1, 1, 1, 1, 1, 1, 1, 1, 1, 1, 1, 1, 1 |
  1, 1, 1, 1, 1, 1, 1, 1, 1, 1, 1, 1, 1, 1, 1, 1, 1, 1, 1, 1, 1, 1, 1, 1, 1, 1, 1, 1, 1, 1, 1, 1, 1, 1, 1, 1, 1, 1, 1, 1, 1, 1, 1, 1, 1, 1, 1, 1, 1, 1 |
  1, 1, 1, 1, 1, 1, 1, 1, 1, 1, 1, 1, 1, 1, 1, 1, 1, 1, 1, 1, 1, 1, 1, 1, 1, 1, 1, 1, 1, 1, 1, 1, 1, 1, 1, 1, 1, 1, 1, 1, 1, 1, 1, 1, 1, 1, 1, 1, 1, 1 |
  1, 1, 1, 1, 1, 1, 1, 1, 1, 1, 1, 1, 1, 1, 1, 1, 1, 1, 1, 1, 1, 1, 1, 1, 1, 1, 1, 1, 1, 1, 1, 1, 1, 1, 1, 1, 1, 1, 1, 1, 1, 1, 1, 1, 1, 1, 1, 1, 1, 1 |
  1, 1, 1, 1, 1, 1, 1, 1, 1, 1, 1, 1, 1, 1, 1, 1, 1, 1, 1, 1, 1, 1, 1, 1, 1, 1, 1, 1, 1, 1, 1, 1, 1, 1, 1, 1, 1, 1, 1, 1, 1, 1, 1, 1, 1, 1, 1, 1, 1, 1 |
  1, 1, 1, 1, 1, 1, 1, 1, 1, 1, 1, 0, 1, 1, 1, 1, 1, 1, 1, 1, 1, 1, 1, 1, 1, 1, 1, 1, 1, 1, 1, 1, 1, 1, 1, 1, 1, 1, 0, 1, 1, 1, 1, 1, 1, 1, 1, 1, 1, 1 |
  1, 1, 1, 1, 1, 1, 1, 1, 1, 1, 1, 0, 1, 1, 1, 1, 1, 1, 1, 1, 1, 1, 1, 1, 1, 1, 1, 1, 1, 1, 1, 1, 1, 1, 1, 1, 1, 1, 0, 1, 1, 1, 1, 1, 1, 1, 1, 1, 1, 1 |
  1, 1, 1, 1, 1, 1, 1, 1, 1, 1, 1, 0, 1, 1, 1, 1, 1, 1, 1, 1, 1, 1, 1, 1, 1, 1, 1, 1, 1, 1, 1, 1, 1, 1, 1, 1, 1, 1, 0, 1, 1, 1, 1, 1, 1, 1, 1, 1, 1, 1 |
  1, 1, 1, 1, 1, 1, 1, 1, 1, 1, 1, 0, 1, 1, 1, 1, 1, 1, 1, 1, 1, 1, 1, 1, 1, 1, 1, 1, 1, 1, 1, 1, 1, 1, 1, 1, 1, 1, 0, 1, 1, 1, 1, 1, 1, 1, 1, 1, 1, 1 |
  1, 1, 1, 1, 1, 1, 1, 1, 1, 1, 1, 0, 1, 1, 1, 1, 1, 1, 1, 1, 1, 1, 1, 1, 1, 1, 1, 1, 1, 1, 1, 1, 1, 1, 1, 1, 1, 1, 0, 1, 1, 1, 1, 1, 1, 1, 1, 1, 1, 1 |
  1, 1, 1, 0, 1, 1, 1, 1, 1, 0, 0, 0, 0, 1, 1, 1, 1, 1, 1, 0, 1, 1, 1, 0, 1, 1, 1, 0, 0, 1, 1, 1, 1, 1, 1, 1, 1, 1, 0, 1, 0, 1, 1, 1, 1, 1, 1, 1, 1, 1 |
  1, 1, 1, 0, 1, 1, 1, 1, 1, 0, 0, 0, 0, 1, 1, 1, 1, 1, 1, 0, 1, 1, 1, 0, 1, 1, 1, 0, 0, 1, 1, 1, 1, 1, 1, 1, 1, 1, 0, 1, 0, 1, 1, 1, 1, 1, 1, 1, 1, 1 |
  1, 1, 1, 0, 1, 1, 1, 1, 1, 0, 0, 0, 0, 1, 1, 1, 1, 1, 1, 0, 1, 1, 1, 0, 1, 1, 1, 0, 0, 1, 1, 1, 1, 1, 1, 1, 1, 1, 0, 1, 0, 1, 1, 1, 1, 1, 1, 1, 1, 1 |
  1, 1, 1, 0, 1, 1, 1, 1, 1, 0, 0, 0, 0, 1, 1, 1, 1, 1, 1, 0, 1, 1, 1, 0, 1, 1, 1, 0, 0, 1, 1, 1, 1, 1, 1, 1, 1, 1, 0, 1, 0, 1, 1, 1, 1, 1, 1, 1, 1, 1 |
  1, 1, 1, 0, 1, 1, 1, 1, 1, 0, 0, 0, 0, 1, 1, 1, 1, 1, 1, 0, 1, 1, 1, 0, 1, 1, 1, 0, 0, 1, 1, 1, 1, 1, 1, 1, 1, 1, 0, 1, 0, 1, 1, 1, 1, 1, 1, 1, 1, 1 |];
