% ============================================================
% Instance Marocaine VRPTW - Casablanca
% Générée automatiquement depuis casa_logistics.xlsx
% Contraintes: trafic dynamique (4 créneaux Waze), zones restreintes,
%              flotte hétérogène (Triporteur/Fourgonnette/Camion)
% ============================================================

num_clients   = 109;
num_vehicules = 30;

% demande[1]=depot(0), demande[2..110]=clients
demande = [0, 122, 199, 112, 34, 126, 91, 208, 40, 122, 141, 230, 234, 94, 222, 107, 136, 119, 123, 171, 150, 169, 72, 21, 107, 177, 57, 149, 211, 207, 40, 180, 223, 77, 41, 108, 68, 238, 78, 189, 239, 207, 227, 34, 209, 209, 194, 209, 70, 127, 74, 83, 150, 248, 70, 154, 40, 92, 186, 37, 151, 108, 79, 33, 28, 109, 72, 149, 103, 111, 130, 207, 218, 191, 27, 194, 54, 225, 100, 183, 69, 123, 151, 21, 153, 73, 125, 23, 73, 240, 210, 165, 237, 63, 181, 221, 209, 247, 33, 114, 67, 34, 219, 225, 234, 209, 59, 232, 227, 101];

% Types: 1=Triporteur(300kg)x17, 2=Fourgonnette(1200kg)x7, 3=Camion(5000kg)x6
capacite_vehicule = [300, 300, 300, 300, 300, 300, 300, 300, 300, 300, 300, 300, 300, 300, 300, 300, 300, 1200, 1200, 1200, 1200, 1200, 1200, 1200, 5000, 5000, 5000, 5000, 5000, 5000];
type_vehicule     = [1, 1, 1, 1, 1, 1, 1, 1, 1, 1, 1, 1, 1, 1, 1, 1, 1, 2, 2, 2, 2, 2, 2, 2, 3, 3, 3, 3, 3, 3];

early   = [0, 14, 34, 62, 42, 93, 95, 76, 114, 68, 64, 129, 117, 111, 115, 106, 57, 97, 79, 89, 78, 105, 66, 57, 54, 85, 85, 104, 55, 100, 105, 84, 81, 73, 102, 78, 81, 105, 94, 103, 50, 94, 91, 81, 62, 94, 94, 76, 96, 61, 78, 67, 60, 95, 64, 67, 76, 81, 66, 68, 70, 81, 69, 52, 103, 93, 77, 109, 96, 83, 107, 59, 105, 62, 102, 41, 54, 62, 67, 72, 103, 71, 59, 61, 56, 57, 74, 50, 49, 41, 44, 64, 41, 91, 100, 38, 76, 32, 37, 46, 27, 54, 91, 82, 56, 104, 68, 58, 90, 85];
late    = [600, 138, 152, 139, 168, 240, 205, 225, 208, 227, 160, 265, 209, 244, 227, 194, 178, 261, 142, 256, 250, 191, 147, 144, 209, 263, 191, 182, 185, 166, 252, 158, 256, 218, 211, 154, 204, 193, 235, 168, 174, 227, 221, 228, 207, 182, 245, 222, 244, 194, 185, 212, 206, 223, 216, 179, 196, 232, 179, 227, 174, 184, 208, 209, 276, 270, 149, 229, 268, 188, 173, 228, 188, 165, 203, 144, 221, 145, 226, 163, 190, 191, 158, 157, 196, 213, 162, 185, 165, 201, 199, 156, 140, 243, 268, 125, 252, 182, 137, 122, 184, 225, 263, 151, 231, 212, 165, 199, 226, 166];
service = [0, 11, 10, 21, 24, 10, 21, 11, 21, 15, 10, 18, 20, 12, 14, 19, 14, 15, 12, 19, 16, 15, 18, 20, 23, 13, 20, 17, 18, 23, 14, 13, 18, 21, 16, 22, 23, 21, 13, 23, 13, 14, 22, 19, 18, 17, 12, 17, 11, 21, 15, 20, 18, 20, 13, 12, 12, 24, 15, 14, 17, 12, 19, 24, 13, 20, 23, 20, 22, 10, 24, 20, 11, 19, 11, 13, 11, 18, 12, 10, 12, 12, 14, 23, 14, 14, 16, 16, 11, 15, 20, 12, 16, 15, 10, 23, 10, 18, 11, 24, 15, 19, 23, 15, 12, 23, 15, 13, 21, 12];

% Matrice distance GPS en mètres (statique, pour objectif)
distance = 
[|
  0, 8779, 7782, 7891, 8963, 23961, 22920, 24603, 25764, 24970, 22833, 28823, 26883, 24038, 25777, 18951, 19096, 18931, 17701, 18087, 18553, 17901, 17149, 17843, 17872, 18884, 19214, 19689, 19858, 18533, 23058, 23838, 22684, 20645, 22766, 23382, 25373, 25061, 23763, 26968, 15906, 15045, 17170, 14646, 15846, 22113, 22171, 19457, 21286, 20073, 12866, 14784, 13506, 16841, 11206, 18784, 18965, 18111, 17511, 19566, 16774, 18070, 17439, 18478, 17259, 27101, 25859, 26265, 25281, 23566, 19496, 19781, 18482, 20303, 19095, 13257, 14442, 13811, 14663, 15383, 19911, 20778, 20236, 19972, 19200, 13257, 11706, 11904, 9857, 10399, 16209, 15097, 14802, 16610, 16156, 8825, 7157, 9261, 7436, 9030, 9363, 10908, 12715, 10831, 12159, 22398, 21134, 21967, 20371, 22600 |
  8779, 0, 5938, 4002, 8781, 27585, 25180, 28061, 29232, 27963, 22737, 28845, 27143, 23629, 25451, 17863, 18404, 18899, 18641, 17376, 20727, 19766, 19714, 20137, 20479, 20538, 20416, 21306, 21164, 19906, 23543, 24067, 23697, 21260, 24249, 24150, 25722, 25985, 24231, 27620, 16665, 16118, 17332, 15413, 16001, 24580, 23940, 21317, 23572, 22444, 11944, 14716, 11837, 15703, 11907, 19602, 20080, 19274, 18629, 20677, 18359, 19519, 18827, 19680, 18962, 29140, 28146, 27887, 27407, 25462, 20057, 20726, 19064, 21321, 19313, 16145, 17366, 16141, 17024, 17157, 19924, 20586, 20671, 19005, 18725, 15001, 14529, 13348, 10471, 12938, 18958, 18607, 17911, 19009, 18159, 11063, 9195, 10748, 10630, 12184, 9547, 8792, 10376, 10695, 9597, 21632, 20117, 20953, 19034, 22166 |
  7782, 5938, 0, 1962, 2846, 21658, 19270, 22127, 23296, 22025, 17244, 23392, 21604, 18249, 20069, 12611, 13018, 13314, 12832, 11969, 14802, 13856, 13776, 14204, 14540, 14653, 14589, 15433, 15331, 14049, 17903, 18500, 17944, 15557, 18420, 18452, 20144, 20273, 18604, 21985, 10850, 10245, 11659, 9569, 10294, 18654, 18071, 15418, 17654, 16516, 6385, 9025, 6587, 10404, 5988, 13830, 14263, 13439, 12791, 14869, 12460, 13648, 12955, 13844, 13058, 23270, 22247, 22065, 21519, 19588, 14347, 14947, 13331, 15537, 13671, 10243, 11451, 10205, 11087, 11232, 14348, 15084, 15000, 13736, 13272, 9064, 8656, 7411, 4533, 7083, 13023, 12732, 12004, 13071, 12229, 5279, 3682, 4853, 5213, 6515, 3611, 3529, 5392, 4841, 4697, 16343, 14893, 15745, 13916, 16770 |
  7891, 4002, 1962, 0, 4786, 23617, 21178, 24082, 25250, 23965, 18911, 25048, 23300, 19862, 21686, 14145, 14621, 15022, 14668, 13579, 16724, 15764, 15722, 16136, 16485, 16541, 16437, 17312, 17184, 15917, 19647, 20206, 19750, 17332, 20271, 20227, 21858, 22058, 20342, 23729, 12688, 12123, 13412, 11425, 12064, 20577, 19948, 17317, 19570, 18442, 8052, 10783, 8076, 11951, 7905, 15644, 16105, 15292, 14646, 16706, 14358, 15526, 14833, 15698, 14960, 25149, 24147, 23913, 23411, 21469, 16125, 16766, 15121, 17359, 15410, 12205, 13412, 12160, 13038, 13154, 16053, 16752, 16757, 15283, 14910, 11004, 10615, 9353, 6478, 9038, 14978, 14693, 13966, 15014, 14158, 7213, 5497, 6814, 7011, 8417, 5552, 4968, 6710, 6699, 5947, 17908, 16422, 17269, 15390, 18388 |
  8963, 8781, 2846, 4786, 0, 18841, 16427, 19299, 20466, 19181, 14648, 20791, 18959, 15719, 17526, 10246, 10543, 10690, 10051, 9497, 11955, 11014, 10936, 11357, 11699, 11823, 11793, 12608, 12529, 11234, 15211, 15851, 15182, 12835, 15616, 15722, 17480, 17531, 15917, 19283, 8074, 7429, 8985, 6778, 7609, 15808, 15246, 12581, 14809, 13670, 3989, 6373, 4544, 8061, 3148, 11071, 11473, 10639, 9991, 12083, 9625, 10826, 10134, 11043, 10220, 20442, 19407, 19261, 18685, 16760, 11626, 12180, 10600, 12765, 11001, 7476, 8659, 7379, 8253, 8386, 11721, 12500, 12302, 11335, 10745, 6220, 5945, 4567, 1692, 4431, 10196, 9990, 9224, 10228, 9383, 2869, 2308, 2202, 3487, 4201, 766, 2348, 3879, 2117, 3496, 13891, 12505, 13356, 11621, 14243 |
  23961, 27585, 21658, 23617, 18841, 0, 4456, 779, 1820, 2141, 10913, 11852, 10447, 11750, 11776, 14001, 13092, 11707, 10340, 13486, 7374, 8453, 7983, 7765, 7253, 8130, 8874, 7683, 8280, 8938, 9355, 10022, 7977, 9559, 6678, 8559, 9831, 8169, 9369, 9387, 11897, 12044, 12170, 12831, 12983, 4230, 6069, 7310, 5157, 5797, 16643, 14054, 17367, 14839, 15812, 9943, 9205, 9636, 10125, 8878, 9835, 9104, 9672, 9321, 9248, 5655, 4439, 6445, 4734, 5360, 10148, 9145, 10605, 8731, 11090, 11459, 10224, 11462, 10601, 10710, 11237, 11470, 10137, 13474, 12581, 12677, 13107, 14300, 17151, 14702, 8649, 9097, 9694, 8714, 9693, 16613, 18603, 16842, 17406, 15684, 18078, 19536, 18786, 17140, 19392, 12664, 13395, 13311, 14256, 11806 |
  22920, 25180, 19270, 21178, 16427, 4456, 0, 4303, 5117, 3296, 6457, 8328, 6592, 7320, 7524, 9894, 8982, 7680, 6804, 9536, 4502, 5414, 5784, 5163, 5048, 4685, 5084, 3985, 4366, 5406, 4903, 5608, 3520, 5303, 2221, 4131, 5662, 4113, 4962, 5785, 8664, 9085, 8517, 9826, 9584, 920, 1687, 3874, 1650, 2857, 13567, 10799, 14104, 11062, 13281, 6117, 5441, 6100, 6706, 4963, 6823, 5728, 6405, 5715, 6218, 4181, 2996, 3610, 2360, 1136, 6104, 5126, 6780, 4611, 7067, 9694, 8482, 9311, 8410, 8047, 7048, 7150, 5933, 9235, 8468, 10260, 11317, 11905, 14759, 12812, 6713, 7953, 8123, 6384, 7076, 14683, 16700, 14693, 15764, 14041, 15667, 16660, 15606, 14492, 16290, 8222, 9035, 8893, 9971, 7354 |
  24603, 28061, 22127, 24082, 19299, 779, 4303, 0, 1179, 1507, 10726, 11295, 9968, 11490, 11404, 14059, 13147, 11785, 10541, 13596, 7657, 8729, 8387, 8102, 7640, 8323, 8999, 7813, 8366, 9124, 9141, 9753, 7795, 9542, 6496, 8313, 9443, 7769, 9098, 8869, 12176, 12376, 12357, 13161, 13233, 4240, 5971, 7488, 5237, 6013, 16977, 14341, 17666, 15005, 16240, 10069, 9340, 9830, 10349, 8970, 10137, 9325, 9923, 9495, 9538, 4970, 3820, 5878, 4209, 5087, 10213, 9210, 10737, 8760, 11167, 11972, 10727, 11921, 11046, 11082, 11255, 11426, 10144, 13476, 12632, 13106, 13628, 14742, 17607, 15219, 9104, 9661, 10213, 9112, 10061, 17133, 19134, 17333, 17967, 16238, 18534, 19918, 19107, 17554, 19730, 12518, 13329, 13196, 14236, 11641 |
  25764, 29232, 23296, 25250, 20466, 1820, 5117, 1179, 0, 1882, 11405, 11363, 10206, 12069, 11817, 14986, 14073, 12738, 11591, 14570, 8765, 9830, 9545, 9235, 8792, 9375, 10001, 8825, 9341, 10169, 9800, 10333, 8506, 10417, 7226, 8939, 9848, 8175, 9681, 9044, 13270, 13499, 13392, 14281, 14310, 5205, 6804, 8536, 6237, 7093, 18097, 15438, 18766, 16020, 17399, 11067, 10348, 10877, 11415, 9947, 11248, 10393, 11006, 10531, 10645, 4805, 3907, 6006, 4488, 5738, 11160, 10162, 11737, 9684, 12120, 13150, 11905, 13091, 12212, 12224, 12154, 12264, 11039, 14351, 13558, 14267, 14807, 15906, 18774, 16397, 10274, 10839, 11392, 10267, 11202, 18312, 20313, 18507, 19146, 17417, 19701, 21058, 20218, 18708, 20850, 13237, 14136, 13948, 15087, 12341 |
  24970, 27963, 22025, 23965, 19181, 2141, 3296, 1507, 1882, 0, 9523, 9789, 8489, 10195, 9997, 13191, 12279, 10969, 9957, 12818, 7292, 8324, 8259, 7836, 7491, 7763, 8302, 7151, 7612, 8536, 7917, 8457, 6628, 8595, 5354, 7057, 8029, 6353, 7805, 7374, 11721, 12029, 11725, 12800, 12714, 3530, 4975, 6923, 4583, 5575, 16599, 13884, 17211, 14315, 16070, 9357, 8656, 9243, 9813, 8216, 9755, 8801, 9444, 8879, 9145, 3517, 2316, 4373, 2724, 3856, 9391, 8404, 10025, 7902, 10354, 12038, 10786, 11859, 10961, 10835, 10343, 10418, 9229, 12521, 11764, 12961, 13701, 14614, 17492, 15269, 9074, 9890, 10319, 8955, 9819, 17179, 19197, 17304, 18114, 16376, 18415, 19625, 18688, 17345, 19345, 11357, 12274, 12072, 13243, 10460 |
  22833, 22737, 17244, 18911, 14648, 10913, 6457, 10726, 11405, 9523, 0, 6149, 4411, 1353, 2946, 5047, 4361, 3962, 5299, 5366, 6373, 6160, 7691, 6898, 7472, 5276, 4371, 4831, 4166, 5059, 1611, 1468, 2936, 2573, 4237, 2499, 3063, 3951, 1943, 5048, 6933, 7820, 5704, 8187, 7072, 6817, 4897, 5409, 6191, 6427, 10869, 8276, 10903, 7070, 11759, 4269, 4428, 5129, 5586, 4011, 6584, 5476, 5877, 4888, 6352, 8224, 8022, 6541, 7213, 5669, 3460, 3630, 4404, 3419, 3737, 10428, 9686, 9538, 8918, 7853, 2942, 2160, 2714, 3967, 4012, 9689, 11549, 10929, 13246, 12542, 8447, 10206, 9724, 7698, 7474, 14007, 15793, 13635, 15413, 13949, 13991, 13961, 12391, 12531, 13166, 1882, 3172, 2683, 4354, 961 |
  28823, 28845, 23392, 25048, 20791, 11852, 8328, 11295, 11363, 9789, 6149, 0, 1993, 5232, 3436, 11014, 10441, 10100, 11125, 11474, 11044, 11306, 12557, 11732, 12063, 10292, 9723, 9564, 9182, 10437, 5778, 4990, 6430, 8180, 6936, 5603, 3481, 4365, 5084, 2547, 12943, 13782, 11820, 14232, 13195, 9179, 7809, 9989, 9275, 10194, 17015, 14418, 17009, 13143, 17862, 10042, 9926, 10760, 11333, 9352, 12170, 10903, 11471, 10420, 11775, 6626, 7495, 5416, 7119, 7196, 9330, 9089, 10351, 8615, 9816, 15974, 15022, 15203, 14456, 13541, 9070, 8308, 8597, 9877, 10137, 15578, 17297, 16940, 19363, 18446, 13471, 15131, 14904, 12825, 12934, 20021, 21865, 19704, 21387, 19842, 20126, 20089, 18475, 18673, 19253, 7284, 8830, 8046, 9998, 6680 |
  26883, 27143, 21604, 23300, 18959, 10447, 6592, 9968, 10206, 8489, 4411, 1993, 0, 3761, 2256, 9422, 8770, 8289, 9182, 9777, 9057, 9313, 10569, 9742, 10085, 8299, 7742, 7571, 7191, 8454, 3825, 3108, 4440, 6241, 5011, 3610, 1510, 2499, 3120, 1246, 11035, 11855, 9973, 12333, 11350, 7395, 5899, 8001, 7393, 8258, 15249, 12594, 15312, 11480, 15986, 8099, 7953, 8793, 9377, 7373, 10192, 8920, 9497, 8446, 9789, 5742, 6302, 4221, 5765, 5457, 7412, 7120, 8441, 6634, 7958, 13987, 13029, 13224, 12470, 11569, 7255, 6557, 6693, 8308, 8422, 13629, 15323, 15019, 17497, 16495, 11480, 13145, 12911, 10832, 10946, 18097, 19963, 17804, 19448, 17886, 18279, 18360, 16802, 16844, 17577, 5824, 7352, 6641, 8550, 5090 |
  24038, 23629, 18249, 19862, 15719, 11750, 7320, 11490, 12069, 10195, 1353, 5232, 3761, 0, 1824, 5782, 5241, 5109, 6615, 6285, 7694, 7510, 9034, 8236, 8795, 6615, 5722, 6138, 5494, 6413, 2459, 1738, 3866, 3926, 5119, 3192, 2751, 4120, 2393, 4671, 8174, 9077, 6870, 9398, 8214, 7795, 5885, 6708, 7279, 7637, 11863, 9372, 11802, 7927, 12905, 5603, 5780, 6473, 6914, 5361, 7926, 6829, 7220, 6238, 7703, 8451, 8468, 6746, 7703, 6405, 4785, 4982, 5695, 4753, 4969, 11762, 11035, 10859, 10256, 9177, 4132, 3261, 4048, 4644, 4980, 10961, 12851, 12148, 14371, 13799, 9798, 11557, 11077, 9050, 8822, 15214, 16959, 14807, 16637, 15207, 15084, 14896, 13254, 13607, 14033, 2074, 3617, 2881, 4805, 1478 |
  25777, 25451, 20069, 21686, 17526, 11776, 7524, 11404, 11817, 9997, 2946, 3436, 2256, 1824, 0, 7597, 7064, 6876, 8213, 8108, 8848, 8838, 10282, 9459, 9940, 7876, 7096, 7279, 6726, 7812, 3259, 2302, 4463, 5357, 5500, 3604, 1968, 3644, 2779, 3401, 9879, 10765, 8631, 11130, 9989, 8170, 6373, 7807, 7874, 8470, 13683, 11168, 13626, 9750, 14681, 7158, 7217, 7981, 8480, 6720, 9436, 8256, 8724, 7699, 9144, 7694, 8001, 6044, 7332, 6465, 6370, 6381, 7340, 6034, 6681, 13292, 12479, 12430, 11772, 10745, 5872, 5036, 5619, 6456, 6797, 12627, 14467, 13875, 16158, 15484, 11114, 12855, 12463, 10395, 10292, 16951, 18726, 16569, 18359, 16891, 16884, 16720, 15075, 15412, 15854, 3850, 5395, 4612, 6562, 3299 |
  18951, 17863, 12611, 14145, 10246, 14001, 9894, 14059, 14986, 13191, 5047, 11014, 9422, 5782, 7597, 0, 913, 2309, 4232, 1046, 7189, 6285, 7692, 7243, 7975, 6101, 5187, 6359, 5723, 5339, 6233, 6488, 6958, 4619, 8021, 7043, 8110, 8802, 6823, 10091, 4253, 5092, 2807, 4959, 3534, 9818, 8224, 6820, 8845, 8344, 6276, 4251, 6069, 2207, 7773, 4159, 4894, 4765, 4596, 5133, 5545, 5391, 5161, 4937, 5815, 12796, 12270, 11210, 11435, 9548, 3852, 4856, 3556, 5303, 2918, 8413, 8274, 7390, 7229, 6061, 2862, 3072, 3969, 1142, 1428, 6843, 8867, 7465, 9099, 9305, 7942, 9450, 8614, 7238, 6398, 10304, 11793, 9727, 11782, 10643, 9688, 9180, 7487, 8189, 8266, 3770, 2282, 3134, 1437, 4346 |
  19096, 18404, 13018, 14621, 10543, 13092, 8982, 13147, 14073, 12279, 4361, 10441, 8770, 5241, 7064, 913, 0, 1427, 3483, 1049, 6351, 5486, 6944, 6448, 7180, 5238, 4301, 5464, 4818, 4494, 5432, 5763, 6086, 3715, 7124, 6214, 7408, 8000, 6051, 9371, 3851, 4750, 2335, 4757, 3364, 8906, 7313, 5937, 7935, 7455, 6636, 4312, 6568, 2710, 7890, 3293, 4019, 3957, 3860, 4232, 4868, 4582, 4418, 4096, 5077, 11931, 11379, 10362, 10544, 8647, 2944, 3947, 2721, 4390, 2022, 8005, 7747, 6987, 6727, 5541, 1961, 2277, 3061, 966, 515, 6593, 8618, 7404, 9289, 9206, 7264, 8837, 8041, 6536, 5761, 10353, 11949, 9837, 11821, 10578, 9942, 9655, 8040, 8449, 8817, 3347, 2057, 2873, 1724, 3767 |
  18931, 18899, 13314, 15022, 10690, 11707, 7680, 11785, 12738, 10969, 3962, 10100, 8289, 5109, 6876, 2309, 1427, 0, 2192, 1868, 4933, 4101, 5602, 5061, 5791, 3812, 2879, 4050, 3427, 3075, 4652, 5187, 5035, 2552, 5946, 5322, 6836, 7157, 5333, 8721, 3143, 4070, 1761, 4306, 3113, 7548, 6038, 4513, 6556, 6035, 6969, 4317, 7123, 3514, 7805, 1867, 2592, 2574, 2577, 2830, 3644, 3193, 3109, 2680, 3765, 10854, 10204, 9354, 9375, 7435, 1578, 2576, 1324, 3070, 618, 7109, 6682, 6120, 5718, 4537, 1034, 1848, 1893, 2129, 958, 5974, 7948, 7055, 9286, 8754, 6002, 7645, 6911, 5252, 4575, 10110, 11852, 9699, 11542, 10157, 10029, 10106, 8645, 8573, 9405, 3603, 2829, 3449, 2989, 3672 |
  17701, 18641, 12832, 14668, 10051, 10340, 6804, 10541, 11591, 9957, 5299, 11125, 9182, 6615, 8213, 4232, 3483, 2192, 0, 3405, 3088, 2088, 3464, 3031, 3759, 2218, 1782, 2820, 2535, 1423, 5357, 6150, 5139, 2944, 5608, 5737, 7672, 7508, 6063, 9332, 1981, 2693, 1836, 3274, 2781, 6428, 5366, 3055, 5376, 4543, 6816, 4018, 7302, 4519, 6951, 1083, 1439, 714, 384, 2038, 1465, 1257, 935, 1088, 1594, 10534, 9644, 9246, 8860, 6885, 1842, 2137, 978, 2715, 1870, 5165, 4576, 4244, 3687, 2566, 2695, 3591, 2593, 4304, 3102, 4453, 6254, 5856, 8477, 7323, 3810, 5459, 4755, 3065, 2407, 8922, 10822, 8675, 10265, 8722, 9324, 9958, 8810, 7990, 9508, 5532, 4997, 5539, 5154, 5345 |
  18087, 17376, 11969, 13579, 9497, 13486, 9536, 13596, 14570, 12818, 5366, 11474, 9777, 6285, 8108, 1046, 1049, 1868, 3405, 0, 6456, 5491, 6820, 6435, 7163, 5437, 4612, 5802, 5231, 4643, 6339, 6737, 6864, 4405, 7811, 7078, 8390, 8893, 6984, 10337, 3215, 4046, 1808, 3925, 2500, 9368, 7902, 6208, 8358, 7743, 5586, 3316, 5539, 1724, 6883, 3545, 4286, 4010, 3745, 4626, 4623, 4625, 4309, 4241, 4948, 12701, 12070, 11175, 11241, 9304, 3432, 4414, 2890, 4930, 2471, 7369, 7255, 6347, 6205, 5045, 2730, 3235, 3740, 1887, 1359, 5804, 7830, 6480, 8262, 8307, 7005, 8465, 7611, 6323, 5438, 9376, 10934, 8835, 10850, 9660, 8902, 8616, 7025, 7407, 7799, 4394, 3047, 3885, 2430, 4809 |
  18553, 20727, 14802, 16724, 11955, 7374, 4502, 7657, 8765, 7292, 6373, 11044, 9057, 7694, 8848, 7189, 6351, 4933, 3088, 6456, 0, 1078, 1519, 720, 1101, 1193, 2229, 1570, 2208, 1858, 5592, 6547, 4620, 3885, 4307, 5478, 7639, 6812, 6160, 8787, 4524, 4743, 4912, 5521, 5613, 3853, 3628, 1059, 2861, 1721, 9334, 6686, 10008, 7594, 8819, 3076, 2403, 2445, 2811, 2495, 2482, 1836, 2315, 2255, 1881, 8632, 7498, 7712, 6826, 5019, 3665, 2903, 3635, 2959, 4388, 5297, 4155, 4824, 3930, 3570, 4912, 5567, 4098, 7014, 5890, 5763, 6872, 7413, 10278, 8331, 2461, 4088, 3923, 1944, 2578, 10188, 12203, 10191, 11303, 9593, 11192, 12334, 11452, 10067, 12086, 7392, 7399, 7698, 7874, 6855 |
  17901, 19766, 13856, 15764, 11014, 8453, 5414, 8729, 9830, 8324, 6160, 11306, 9313, 7510, 8838, 6285, 5486, 4101, 2088, 5491, 1078, 0, 1587, 962, 1693, 1016, 1790, 1797, 2138, 1154, 5646, 6575, 4904, 3588, 4865, 5703, 7841, 7227, 6282, 9182, 3447, 3708, 3878, 4475, 4535, 4841, 4321, 1591, 3812, 2751, 8280, 5612, 8937, 6551, 7867, 2324, 1805, 1529, 1775, 2149, 1432, 908, 1249, 1475, 821, 9463, 8393, 8420, 7683, 5797, 3051, 2533, 2776, 2804, 3613, 4720, 3715, 4092, 3244, 2651, 4257, 5017, 3627, 6223, 5055, 4883, 6195, 6510, 9350, 7573, 2289, 4047, 3633, 1556, 1750, 9383, 11383, 9326, 10567, 8887, 10255, 11306, 10388, 9084, 11030, 6925, 6733, 7127, 7085, 6501 |
  17149, 19714, 13776, 15722, 10936, 7983, 5784, 8387, 9545, 8259, 7691, 12557, 10569, 9034, 10282, 7692, 6944, 5602, 3464, 6820, 1519, 1587, 0, 829, 768, 2421, 3350, 3024, 3562, 2741, 7043, 7991, 6129, 5133, 5816, 6979, 9139, 8332, 7636, 10307, 4248, 4162, 5086, 4943, 5418, 5025, 5103, 2568, 4141, 2928, 8711, 6283, 9511, 7661, 7854, 3892, 3390, 3042, 3095, 3690, 2248, 2455, 2531, 3051, 1876, 9962, 8760, 9145, 8142, 6428, 4636, 4088, 4284, 4286, 5154, 3909, 2707, 3603, 2702, 2750, 5832, 6603, 5209, 7731, 6542, 4723, 5539, 6369, 9244, 7063, 956, 2587, 2419, 732, 1761, 8957, 10979, 9047, 9989, 8260, 10170, 11554, 10873, 9167, 11447, 8511, 8297, 8710, 8590, 8073 |
  17843, 20137, 14204, 16136, 11357, 7765, 5163, 8102, 9235, 7836, 6898, 11732, 9742, 8236, 9459, 7243, 6448, 5061, 3031, 6435, 720, 962, 829, 0, 732, 1623, 2600, 2194, 2749, 2060, 6216, 7166, 5302, 4357, 5026, 6150, 8310, 7521, 6806, 9496, 4183, 4279, 4784, 5066, 5320, 4468, 4347, 1745, 3514, 2328, 8880, 6311, 9608, 7435, 8235, 3266, 2688, 2491, 2697, 2921, 2102, 1869, 2144, 2415, 1567, 9316, 8157, 8424, 7504, 5724, 3957, 3326, 3738, 3483, 4566, 4585, 3435, 4147, 3247, 3000, 5183, 5911, 4481, 7181, 6016, 5144, 6173, 6798, 9672, 7650, 1749, 3417, 3207, 1234, 1983, 9519, 11538, 9549, 10612, 8897, 10592, 11825, 11021, 9509, 11632, 7791, 7668, 8034, 8044, 7315 |
  17872, 20479, 14540, 16485, 11699, 7253, 5048, 7640, 8792, 7491, 7472, 12063, 10085, 8795, 9940, 7975, 7180, 5791, 3759, 7163, 1101, 1693, 768, 732, 0, 2239, 3258, 2669, 3305, 2767, 6682, 7638, 5664, 4968, 5229, 6532, 8689, 7783, 7236, 9755, 4816, 4824, 5495, 5611, 5971, 4270, 4469, 2134, 3414, 2203, 9405, 6909, 10175, 8132, 8610, 3983, 3378, 3222, 3420, 3555, 2749, 2599, 2862, 3133, 2259, 9230, 8012, 8461, 7409, 5737, 4651, 3963, 4467, 4055, 5288, 4654, 3433, 4371, 3471, 3456, 5887, 6591, 5141, 7908, 6746, 5483, 6295, 7132, 10008, 7826, 1664, 3091, 3090, 1474, 2443, 9723, 11745, 9815, 10743, 9012, 10933, 12285, 11560, 9916, 12149, 8449, 8375, 8719, 8771, 7937 |
  18884, 20538, 14653, 16541, 11823, 8130, 4685, 8323, 9375, 7763, 5276, 10292, 8299, 6615, 7876, 6101, 5238, 3812, 2218, 5437, 1193, 1016, 2421, 1623, 2239, 0, 1036, 810, 1150, 808, 4658, 5596, 3888, 2738, 3898, 4689, 6831, 6217, 5281, 8169, 3982, 4420, 4040, 5146, 4950, 4234, 3427, 841, 3181, 2335, 8884, 6131, 9452, 6710, 8676, 1945, 1233, 1507, 2049, 1315, 2209, 1044, 1721, 1201, 1647, 8618, 7614, 7498, 6869, 4936, 2477, 1723, 2557, 1864, 3242, 5732, 4730, 5073, 4244, 3553, 3726, 4374, 2909, 5858, 4761, 5780, 7184, 7378, 10179, 8528, 3240, 4980, 4628, 2544, 2730, 10310, 12296, 10212, 11525, 9860, 11072, 11975, 10940, 9843, 11614, 6211, 6210, 6505, 6715, 5702 |
  19214, 20416, 14589, 16437, 11793, 8874, 5084, 8999, 10001, 8302, 4371, 9723, 7742, 5722, 7096, 5187, 4301, 2879, 1782, 4612, 2229, 1790, 3350, 2600, 3258, 1036, 0, 1190, 753, 721, 3972, 4868, 3478, 1798, 3833, 4175, 6242, 5862, 4644, 7754, 3750, 4377, 3433, 5020, 4542, 4797, 3593, 1636, 3766, 3157, 8597, 5795, 9057, 6020, 8670, 1070, 357, 1155, 1802, 377, 2454, 1182, 1774, 754, 2064, 8752, 7875, 7477, 7085, 5108, 1452, 742, 1738, 1107, 2281, 6260, 5386, 5483, 4738, 3840, 2699, 3339, 1883, 4865, 3808, 5979, 7586, 7490, 10194, 8816, 4076, 5835, 5374, 3328, 3224, 10513, 12457, 10330, 11800, 10188, 11057, 11741, 10573, 9749, 11278, 5193, 5177, 5470, 5715, 4723 |
  19689, 21306, 15433, 17312, 12608, 7683, 3985, 7813, 8825, 7151, 4831, 9564, 7571, 6138, 7279, 6359, 5464, 4050, 2820, 5802, 1570, 1797, 3024, 2194, 2669, 810, 1190, 0, 733, 1423, 4027, 4981, 3137, 2428, 3088, 3967, 6124, 5433, 4612, 7394, 4694, 5189, 4575, 5898, 5598, 3630, 2638, 588, 2588, 1999, 9594, 6815, 10118, 7196, 9462, 2259, 1526, 2114, 2725, 1243, 3010, 1786, 2478, 1733, 2456, 7837, 6867, 6692, 6107, 4156, 2547, 1594, 2925, 1460, 3442, 6516, 5481, 5878, 5040, 4363, 3753, 4259, 2774, 5973, 4963, 6588, 7986, 8180, 10971, 9338, 3912, 5611, 5340, 3265, 3533, 11120, 13105, 11017, 12335, 10668, 11859, 12707, 11620, 10612, 12308, 5973, 6172, 6364, 6810, 5369 |
  19858, 21164, 15331, 17184, 12529, 8280, 4366, 8366, 9341, 7612, 4166, 9182, 7191, 5494, 6726, 5723, 4818, 3427, 2535, 5231, 2208, 2138, 3562, 2749, 3305, 1150, 753, 733, 0, 1332, 3511, 4447, 2831, 1703, 3088, 3588, 5710, 5203, 4144, 7126, 4499, 5105, 4157, 5762, 5292, 4137, 2845, 1314, 3131, 2698, 9350, 6548, 9805, 6703, 9400, 1750, 1104, 1892, 2540, 605, 3085, 1789, 2447, 1487, 2616, 7999, 7127, 6733, 6334, 4356, 1876, 886, 2415, 752, 2810, 6800, 5846, 6078, 5290, 4475, 3047, 3527, 2044, 5281, 4310, 6655, 8191, 8193, 10921, 9468, 4390, 6129, 5769, 3687, 3764, 11196, 13154, 11036, 12461, 10828, 11791, 12494, 11322, 10493, 12029, 5246, 5446, 5630, 6109, 4661 |
  18533, 19906, 14049, 15917, 11234, 8938, 5406, 9124, 10169, 8536, 5059, 10437, 8454, 6413, 7812, 5339, 4494, 3075, 1423, 4643, 1858, 1154, 2741, 2060, 2767, 808, 721, 1423, 1332, 0, 4693, 5589, 4151, 2488, 4388, 4874, 6957, 6530, 5363, 8440, 3273, 3805, 3234, 4493, 4185, 5006, 4036, 1635, 3954, 3143, 8170, 5393, 8701, 5902, 8097, 1224, 652, 708, 1301, 1098, 1759, 467, 1116, 403, 1343, 9234, 8287, 8029, 7521, 5560, 1901, 1436, 1783, 1824, 2537, 5541, 4667, 4775, 4019, 3150, 3123, 3864, 2476, 5165, 4032, 5322, 6883, 6866, 9614, 8140, 3403, 5161, 4668, 2644, 2503, 9863, 11823, 9709, 11130, 9504, 10491, 11286, 10200, 9218, 10885, 5771, 5609, 5980, 6026, 5360 |
  23058, 23543, 17903, 19647, 15211, 9355, 4903, 9141, 9800, 7917, 1611, 5778, 3825, 2459, 3259, 6233, 5432, 4652, 5357, 6339, 5592, 5646, 7043, 6216, 6682, 4658, 3972, 4027, 3511, 4693, 0, 956, 1408, 2418, 2684, 896, 2315, 2569, 710, 4083, 7225, 8034, 6244, 8529, 7611, 5340, 3426, 4548, 4831, 5273, 11603, 8878, 11774, 8062, 12197, 4274, 4154, 4982, 5555, 3597, 6402, 5154, 5699, 4648, 6036, 6697, 6426, 5042, 5611, 4067, 3604, 3313, 4636, 2871, 4236, 10232, 9338, 9434, 8709, 7766, 3645, 3164, 2909, 5252, 4996, 9805, 11522, 11199, 13715, 12672, 7897, 9625, 9279, 7198, 7196, 14274, 16150, 13994, 15623, 14065, 14517, 14751, 13292, 13103, 14055, 3481, 4640, 4256, 5773, 2565 |
  23838, 24067, 18500, 20206, 15851, 10022, 5608, 9753, 10333, 8457, 1468, 4990, 3108, 1738, 2302, 6488, 5763, 5187, 6150, 6737, 6547, 6575, 7991, 7166, 7638, 5596, 4868, 4981, 4447, 5589, 956, 0, 2249, 3213, 3435, 1481, 1656, 2529, 655, 3608, 7953, 8794, 6865, 9244, 8241, 6131, 4248, 5505, 5702, 6207, 12154, 9486, 12250, 8456, 12885, 5070, 5025, 5830, 6377, 4491, 7269, 6045, 6560, 5516, 6932, 6853, 6772, 5154, 5992, 4670, 4341, 4181, 5361, 3780, 4850, 11116, 10250, 10294, 9592, 8616, 4153, 3502, 3607, 5426, 5378, 10603, 12367, 11950, 14394, 13472, 8837, 10570, 10207, 8130, 8089, 15032, 16877, 14717, 16402, 14872, 15172, 15277, 13753, 13735, 14524, 3265, 4635, 4095, 5821, 2367 |
  22684, 23697, 17944, 19750, 15182, 7977, 3520, 7795, 8506, 6628, 2936, 6430, 4440, 3866, 4463, 6958, 6086, 5035, 5139, 6864, 4620, 4904, 6129, 5302, 5664, 3888, 3478, 3137, 2831, 4151, 1408, 2249, 0, 2495, 1301, 881, 3025, 2384, 1684, 4295, 7109, 7819, 6390, 8411, 7697, 3931, 2019, 3562, 3453, 4014, 11773, 8982, 12073, 8548, 12090, 4113, 3755, 4613, 5246, 3142, 5910, 4614, 5249, 4227, 5446, 5846, 5349, 4318, 4515, 2777, 3659, 3003, 4634, 2426, 4503, 9614, 8612, 8909, 8112, 7301, 4147, 3952, 3143, 6106, 5599, 9457, 11022, 10958, 13617, 12289, 7040, 8708, 8476, 6402, 6587, 13991, 15928, 13793, 15277, 13655, 14460, 14940, 13603, 13105, 14347, 4732, 5696, 5446, 6742, 3846 |
  20645, 21260, 15557, 17332, 12835, 9559, 5303, 9542, 10417, 8595, 2573, 8180, 6241, 3926, 5357, 4619, 3715, 2552, 2944, 4405, 3885, 3588, 5133, 4357, 4968, 2738, 1798, 2428, 1703, 2488, 2418, 3213, 2495, 0, 3416, 2895, 4732, 4726, 3127, 6451, 4813, 5616, 3928, 6119, 5268, 5330, 3620, 3015, 4447, 4295, 9319, 6549, 9586, 6067, 9796, 1861, 1867, 2628, 3163, 1443, 4080, 2914, 3369, 2343, 3798, 8301, 7677, 6810, 6845, 4932, 1210, 1056, 2235, 972, 2008, 7936, 7137, 7091, 6415, 5408, 1757, 1933, 664, 3936, 3207, 7397, 9155, 8781, 11317, 10266, 5874, 7633, 7156, 5124, 4938, 11857, 13734, 11579, 13209, 11664, 12131, 12484, 11115, 10736, 11863, 3545, 3879, 3968, 4698, 2969 |
  22766, 24249, 18420, 20271, 15616, 6678, 2221, 6496, 7226, 5354, 4237, 6936, 5011, 5119, 5500, 8021, 7124, 5946, 5608, 7811, 4307, 4865, 5816, 5026, 5229, 3898, 3833, 3088, 3088, 4388, 2684, 3435, 1301, 3416, 0, 1956, 3797, 2583, 2807, 4540, 7583, 8188, 7094, 8851, 8320, 2698, 898, 3323, 2414, 3258, 12400, 9593, 12796, 9443, 12483, 4697, 4169, 4981, 5629, 3578, 6085, 4816, 5501, 4575, 5544, 4965, 4261, 3645, 3430, 1539, 4438, 3584, 5304, 2993, 5365, 9550, 8452, 8957, 8104, 7449, 5162, 5108, 4079, 7247, 6620, 9670, 11059, 11245, 14001, 12426, 6767, 8321, 8230, 6223, 6613, 14206, 16185, 14086, 15423, 13751, 14875, 15556, 14323, 13581, 15046, 6025, 6927, 6722, 7929, 5145 |
  23382, 24150, 18452, 20227, 15722, 8559, 4131, 8313, 8939, 7057, 2499, 5603, 3610, 3192, 3604, 7043, 6214, 5322, 5737, 7078, 5478, 5703, 6979, 6150, 6532, 4689, 4175, 3967, 3588, 4874, 896, 1481, 881, 2895, 1956, 0, 2160, 1838, 852, 3597, 7672, 8430, 6818, 8980, 8164, 4654, 2790, 4419, 4274, 4890, 12207, 9444, 12436, 8793, 12664, 4673, 4416, 5272, 5885, 3816, 6628, 5341, 5946, 4903, 6198, 5818, 5529, 4181, 4716, 3226, 4105, 3611, 5123, 3078, 4850, 10389, 9419, 9650, 8876, 8015, 4353, 3973, 3482, 6096, 5757, 10131, 11758, 11590, 14188, 12982, 7879, 9563, 9304, 7223, 7351, 14646, 16558, 14412, 15959, 14360, 15013, 15368, 13962, 13628, 14717, 4375, 5526, 5153, 6646, 3458 |
  25373, 25722, 20144, 21858, 17480, 9831, 5662, 9443, 9848, 8029, 3063, 3481, 1510, 2751, 1968, 8110, 7408, 6836, 7672, 8390, 7639, 7841, 9139, 8310, 8689, 6831, 6242, 6124, 5710, 6957, 2315, 1656, 3025, 4732, 3797, 2160, 0, 1676, 1610, 1991, 9531, 10347, 8496, 10832, 9871, 6373, 4695, 6579, 6211, 6968, 13805, 11124, 13906, 10106, 14491, 6589, 6447, 7285, 7867, 5871, 8689, 7422, 7992, 6941, 8295, 5821, 6045, 4138, 5365, 4567, 5908, 5612, 6938, 5134, 6480, 12495, 11555, 11722, 10975, 10063, 5804, 5155, 5195, 7026, 7030, 12118, 13818, 13512, 16005, 14985, 10036, 11724, 11455, 9372, 9454, 16589, 18459, 16301, 17938, 16376, 16795, 16932, 15408, 15367, 16180, 4688, 6158, 5527, 7357, 3861 |
  25061, 25985, 20273, 22058, 17531, 8169, 4113, 7769, 8175, 6353, 3951, 4365, 2499, 4120, 3644, 8802, 8000, 7157, 7508, 8893, 6812, 7227, 8332, 7521, 7783, 6217, 5862, 5433, 5203, 6530, 2569, 2529, 2384, 4726, 2583, 1838, 1676, 0, 2017, 1975, 9466, 10195, 8653, 10772, 9993, 4898, 3445, 5781, 4913, 5839, 14043, 11275, 14274, 10612, 14455, 6463, 6138, 6996, 7627, 5526, 8288, 6991, 7632, 6611, 7810, 4338, 4406, 2634, 3700, 2986, 5932, 5370, 6942, 4804, 6688, 11947, 10906, 11272, 10459, 9678, 6176, 5733, 5321, 7806, 7558, 11841, 13386, 13340, 15981, 14670, 9271, 10871, 10727, 8678, 8939, 16375, 18310, 16173, 17659, 16031, 16816, 17206, 15799, 15443, 16555, 5792, 7115, 6618, 8282, 4886 |
  23763, 24231, 18604, 20342, 15917, 9369, 4962, 9098, 9681, 7805, 1943, 5084, 3120, 2393, 2779, 6823, 6051, 5333, 6063, 6984, 6160, 6282, 7636, 6806, 7236, 5281, 4644, 4612, 4144, 5363, 710, 655, 1684, 3127, 2807, 852, 1610, 2017, 0, 3388, 7935, 8742, 6945, 9239, 8314, 5505, 3642, 5105, 5119, 5691, 12294, 9579, 12447, 8708, 12907, 4981, 4841, 5676, 6256, 4272, 7086, 5827, 6386, 5335, 6704, 6287, 6148, 4599, 5360, 4015, 4314, 4004, 5346, 3538, 4934, 10904, 9988, 10119, 9382, 8456, 4316, 3773, 3616, 5803, 5632, 10508, 12212, 11908, 14425, 13374, 8510, 10223, 9910, 7826, 7865, 14983, 16860, 14704, 16328, 14766, 15224, 15438, 13962, 13809, 14728, 3808, 5099, 4623, 6265, 2892 |
  26968, 27620, 21985, 23729, 19283, 9387, 5785, 8869, 9044, 7374, 5048, 2547, 1246, 4671, 3401, 10091, 9371, 8721, 9332, 10337, 8787, 9182, 10307, 9496, 9755, 8169, 7754, 7394, 7126, 8440, 4083, 3608, 4295, 6451, 4540, 3597, 1991, 1975, 3388, 0, 11257, 12026, 10326, 12565, 11691, 6646, 5376, 7754, 6800, 7782, 15683, 12961, 15828, 12059, 16245, 8264, 8008, 8865, 9482, 7403, 10199, 8905, 9528, 8492, 9741, 4507, 5137, 3038, 4662, 4656, 7658, 7209, 8687, 6668, 8319, 13901, 12872, 13204, 12405, 11589, 7700, 7104, 6985, 9014, 8978, 13724, 15317, 15187, 17768, 16570, 11245, 12845, 12700, 10647, 10881, 18243, 20155, 18007, 19551, 17942, 18582, 18827, 17339, 17179, 18107, 6665, 8147, 7501, 9347, 5850 |
  15906, 16665, 10850, 12688, 8074, 11897, 8664, 12176, 13270, 11721, 6933, 12943, 11035, 8174, 9879, 4253, 3851, 3143, 1981, 3215, 4524, 3447, 4248, 4183, 4816, 3982, 3750, 4694, 4499, 3273, 7225, 7953, 7109, 4813, 7583, 7672, 9531, 9466, 7935, 11257, 0, 929, 1518, 1308, 1172, 8202, 7302, 4812, 7151, 6178, 4903, 2167, 5496, 3519, 4991, 3003, 3416, 2613, 1975, 4019, 2080, 2937, 2277, 3018, 2650, 12490, 11560, 11225, 10792, 8825, 3623, 4106, 2594, 4691, 3205, 4167, 4071, 3145, 3010, 1898, 4046, 4945, 4346, 4814, 3708, 2831, 4821, 4002, 6516, 5628, 4132, 5374, 4472, 3594, 2561, 7085, 8927, 6769, 8480, 7035, 7351, 8014, 6967, 6008, 7633, 6744, 5807, 6526, 5543, 6780 |
  15045, 16118, 10245, 12123, 7429, 12044, 9085, 12376, 13499, 12029, 7820, 13782, 11855, 9077, 10765, 5092, 4750, 4070, 2693, 4046, 4743, 3708, 4162, 4279, 4824, 4420, 4377, 5189, 5105, 3805, 8034, 8794, 7819, 5616, 8188, 8430, 10347, 10195, 8742, 12026, 929, 0, 2430, 788, 1689, 8547, 7827, 5211, 7512, 6453, 4601, 2156, 5352, 4075, 4295, 3766, 4071, 3222, 2578, 4685, 2276, 3403, 2711, 3623, 2887, 13027, 12033, 11832, 11289, 9346, 4452, 4826, 3438, 5392, 4108, 3332, 3417, 2314, 2363, 1471, 4957, 5862, 5191, 5716, 4628, 1903, 3894, 3165, 5817, 4723, 3838, 4832, 3888, 3447, 2400, 6241, 8128, 5981, 7610, 6130, 6687, 7598, 6743, 5423, 7354, 7673, 6728, 7452, 6422, 7696 |
  17170, 17332, 11659, 13412, 8985, 12170, 8517, 12357, 13392, 11725, 5704, 11820, 9973, 6870, 8631, 2807, 2335, 1761, 1836, 1808, 4912, 3878, 5086, 4784, 5495, 4040, 3433, 4575, 4157, 3234, 6244, 6865, 6390, 3928, 7094, 6818, 8496, 8653, 6945, 10326, 1518, 2430, 0, 2561, 1376, 8205, 6990, 4869, 7160, 6373, 5391, 2634, 5704, 2684, 6054, 2419, 3075, 2534, 2104, 3577, 2853, 3091, 2641, 2862, 3242, 12059, 11264, 10662, 10458, 8481, 2732, 3510, 1789, 4101, 2016, 5671, 5469, 4652, 4429, 3255, 2762, 3609, 3344, 3297, 2199, 4309, 6321, 5303, 7545, 7029, 5211, 6656, 5808, 4549, 3636, 8351, 10095, 7939, 9787, 8426, 8308, 8556, 7233, 6871, 7966, 5305, 4297, 5034, 4039, 5431 |
  14646, 15413, 9569, 11425, 6778, 12831, 9826, 13161, 14281, 12800, 8187, 14232, 12333, 9398, 11130, 4959, 4757, 4306, 3274, 3925, 5521, 4475, 4943, 5066, 5611, 5146, 5020, 5898, 5762, 4493, 8529, 9244, 8411, 6119, 8851, 8980, 10832, 10772, 9239, 12565, 1308, 788, 2561, 0, 1425, 9308, 8529, 5952, 8268, 7225, 3816, 1445, 4567, 3631, 3683, 4310, 4696, 3869, 3222, 5305, 3044, 4114, 3426, 4275, 3654, 13727, 12759, 12496, 12005, 10051, 4925, 5407, 3893, 5989, 4449, 3681, 3985, 2712, 2969, 2224, 5266, 6145, 5640, 5716, 4720, 1891, 3909, 2750, 5209, 4474, 4583, 5457, 4499, 4225, 3182, 5821, 7632, 5472, 7239, 5867, 6050, 6838, 5955, 4730, 6569, 7865, 6794, 7564, 6351, 7977 |
  15846, 16001, 10294, 12064, 7609, 12983, 9584, 13233, 14310, 12714, 7072, 13195, 11350, 8214, 9989, 3534, 3364, 3113, 2781, 2500, 5613, 4535, 5418, 5320, 5971, 4950, 4542, 5598, 5292, 4185, 7611, 8241, 7697, 5268, 8320, 8164, 9871, 9993, 8314, 11691, 1172, 1689, 1376, 1425, 0, 9184, 8136, 5792, 8131, 7221, 4084, 1284, 4521, 2401, 4692, 3626, 4188, 3484, 2901, 4750, 3223, 3919, 3312, 3869, 3765, 13275, 12417, 11928, 11627, 9649, 4061, 4749, 3063, 5345, 3391, 4995, 5093, 3987, 4032, 3006, 4131, 4956, 4705, 4314, 3379, 3312, 5334, 4047, 6174, 5841, 5295, 6467, 5540, 4766, 3731, 7045, 8745, 6596, 8499, 7215, 6932, 7249, 6032, 5496, 6737, 6566, 5417, 6208, 4929, 6761 |
  22113, 24580, 18654, 20577, 15808, 4230, 920, 4240, 5205, 3530, 6817, 9179, 7395, 7795, 8170, 9818, 8906, 7548, 6428, 9368, 3853, 4841, 5025, 4468, 4270, 4234, 4797, 3630, 4137, 5006, 5340, 6131, 3931, 5330, 2698, 4654, 6373, 4898, 5505, 6646, 8202, 8547, 8205, 9308, 9184, 0, 1921, 3395, 1053, 2141, 13092, 10361, 13685, 10818, 12672, 5862, 5147, 5714, 6283, 4743, 6271, 5274, 5925, 5352, 5660, 5011, 3747, 4528, 3201, 1995, 5973, 4971, 6532, 4522, 6929, 8924, 7696, 8599, 7694, 7423, 7022, 7240, 5916, 9252, 8392, 9607, 10564, 11259, 14129, 12084, 5929, 7094, 7310, 5662, 6426, 13970, 15991, 14017, 15013, 13282, 15045, 16145, 15168, 13914, 15832, 8495, 9169, 9111, 10028, 7666 |
  22171, 23940, 18071, 19948, 15246, 6069, 1687, 5971, 6804, 4975, 4897, 7809, 5899, 5885, 6373, 8224, 7313, 6038, 5366, 7902, 3628, 4321, 5103, 4347, 4469, 3427, 3593, 2638, 2845, 4036, 3426, 4248, 2019, 3620, 898, 2790, 4695, 3445, 3642, 5376, 7302, 7827, 6990, 8529, 8136, 1921, 0, 2732, 1516, 2406, 12182, 9385, 12650, 9468, 12100, 4571, 3948, 4691, 5327, 3412, 5636, 4423, 5116, 4290, 5061, 5200, 4281, 4104, 3493, 1523, 4471, 3521, 5219, 2974, 5430, 8921, 7782, 8391, 7516, 6960, 5370, 5464, 4256, 7549, 6800, 9193, 10473, 10802, 13606, 11888, 6059, 7550, 7521, 5571, 6065, 13704, 15702, 13632, 14877, 13184, 14496, 15314, 14167, 13249, 14872, 6599, 7357, 7243, 8284, 5756 |
  19457, 21317, 15418, 17317, 12581, 7310, 3874, 7488, 8536, 6923, 5409, 9989, 8001, 6708, 7807, 6820, 5937, 4513, 3055, 6208, 1059, 1591, 2568, 1745, 2134, 841, 1636, 588, 1314, 1635, 4548, 5505, 3562, 3015, 3323, 4419, 6579, 5781, 5105, 7754, 4812, 5211, 4869, 5952, 5792, 3395, 2732, 0, 2342, 1534, 9710, 6967, 10290, 7529, 9432, 2671, 1930, 2342, 2890, 1771, 2958, 1879, 2539, 2011, 2362, 7876, 6830, 6835, 6104, 4206, 3061, 2148, 3317, 2048, 3917, 6228, 5136, 5662, 4794, 4240, 4289, 4829, 3342, 6489, 5444, 6473, 7752, 8096, 10924, 9156, 3493, 5146, 4946, 2906, 3332, 10974, 12975, 10916, 12146, 10458, 11825, 12789, 11775, 10624, 12445, 6560, 6731, 6941, 7334, 5957 |
  21286, 23572, 17654, 19570, 14809, 5157, 1650, 5237, 6237, 4583, 6191, 9275, 7393, 7279, 7874, 8845, 7935, 6556, 5376, 8358, 2861, 3812, 4141, 3514, 3414, 3181, 3766, 2588, 3131, 3954, 4831, 5702, 3453, 4447, 2414, 4274, 6211, 4913, 5119, 6800, 7151, 7512, 7160, 8268, 8131, 1053, 1516, 2342, 0, 1213, 12045, 9309, 12633, 9783, 11667, 4835, 4111, 4662, 5230, 3734, 5238, 4221, 4876, 4303, 4628, 5821, 4643, 5091, 4002, 2375, 4992, 3988, 5504, 3581, 5938, 8049, 6844, 7662, 6760, 6422, 6087, 6378, 4997, 8329, 7423, 8625, 9668, 10273, 13135, 11162, 5076, 6385, 6500, 4734, 5439, 13034, 15052, 13052, 14115, 12392, 14047, 15107, 14117, 12896, 14784, 7764, 8321, 8328, 9125, 6980 |
  20073, 22444, 16516, 18442, 13670, 5797, 2857, 6013, 7093, 5575, 6427, 10194, 8258, 7637, 8470, 8344, 7455, 6035, 4543, 7743, 1721, 2751, 2928, 2328, 2203, 2335, 3157, 1999, 2698, 3143, 5273, 6207, 4014, 4295, 3258, 4890, 6968, 5839, 5691, 7782, 6178, 6453, 6373, 7225, 7221, 2141, 2406, 1534, 1213, 0, 11031, 8345, 11674, 9046, 10537, 4204, 3462, 3839, 4337, 3242, 4181, 3314, 3913, 3531, 3572, 7034, 5841, 6274, 5214, 3549, 4546, 3582, 4852, 3335, 5433, 6837, 5630, 6468, 5565, 5288, 5745, 6198, 4730, 7971, 6957, 7466, 8460, 9118, 11989, 9963, 3863, 5208, 5291, 3534, 4287, 11841, 13861, 11878, 12909, 11184, 12906, 14050, 13135, 11789, 13781, 7800, 8132, 8264, 8805, 7105 |
  12866, 11944, 6385, 8052, 3989, 16643, 13567, 16977, 18097, 16599, 10869, 17015, 15249, 11863, 13683, 6276, 6636, 6969, 6816, 5586, 9334, 8280, 8711, 8880, 9405, 8884, 8597, 9594, 9350, 8170, 11603, 12154, 11773, 9319, 12400, 12207, 13805, 14043, 12294, 15683, 4903, 4601, 5391, 3816, 4084, 13092, 12182, 9710, 12045, 11031, 0, 2806, 1114, 4079, 2393, 7710, 8248, 7493, 6868, 8824, 6853, 7839, 7171, 7893, 7460, 17347, 16453, 16013, 15676, 13702, 8122, 8833, 7143, 9430, 7369, 6371, 7197, 5743, 6380, 5961, 8000, 8709, 8726, 7382, 6887, 4418, 5522, 3382, 3127, 4825, 8233, 8718, 7781, 7981, 6962, 4815, 5792, 4018, 6209, 5703, 3503, 3166, 2168, 2054, 2752, 9971, 8548, 9401, 7636, 10385 |
  14784, 14716, 9025, 10783, 6373, 14054, 10799, 14341, 15438, 13884, 8276, 14418, 12594, 9372, 11168, 4251, 4312, 4317, 4018, 3316, 6686, 5612, 6283, 6311, 6909, 6131, 5795, 6815, 6548, 5393, 8878, 9486, 8982, 6549, 9593, 9444, 11124, 11275, 9579, 12961, 2167, 2156, 2634, 1445, 1284, 10361, 9385, 6967, 9309, 8345, 2806, 0, 3329, 2470, 3578, 4905, 5444, 4705, 4093, 6018, 4219, 5088, 4440, 5100, 4806, 14542, 13661, 13208, 12878, 10903, 5343, 6029, 4348, 6625, 4646, 5017, 5420, 4098, 4413, 3627, 5348, 6134, 5978, 5204, 4434, 3062, 4940, 3252, 5004, 5108, 5994, 6900, 5941, 5582, 4529, 6061, 7641, 5524, 7537, 6411, 5717, 5967, 4809, 4255, 5492, 7626, 6357, 7184, 5688, 7902 |
  13506, 11837, 6587, 8076, 4544, 17367, 14104, 17666, 18766, 17211, 10903, 17009, 15312, 11802, 13626, 6069, 6568, 7123, 7302, 5539, 10008, 8937, 9511, 9608, 10175, 9452, 9057, 10118, 9805, 8701, 11774, 12250, 12073, 9586, 12796, 12436, 13906, 14274, 12447, 15828, 5496, 5352, 5704, 4567, 4521, 13685, 12650, 10290, 12633, 11674, 1114, 3329, 0, 3878, 3483, 8104, 8702, 8003, 7407, 9249, 7533, 8411, 7769, 8390, 8127, 17760, 16932, 16363, 16136, 14158, 8418, 9211, 7492, 9804, 7590, 7414, 8179, 6732, 7311, 6777, 8131, 8757, 8961, 7207, 6890, 5425, 6627, 4486, 4014, 5932, 9104, 9704, 8755, 8790, 7750, 5804, 6569, 4973, 7146, 6764, 4203, 3111, 1530, 2903, 2282, 9833, 8347, 9196, 7336, 10334 |
  16841, 15703, 10404, 11951, 8061, 14839, 11062, 15005, 16020, 14315, 7070, 13143, 11480, 7927, 9750, 2207, 2710, 3514, 4519, 1724, 7594, 6551, 7661, 7435, 8132, 6710, 6020, 7196, 6703, 5902, 8062, 8456, 8548, 6067, 9443, 8793, 10106, 10612, 8708, 12059, 3519, 4075, 2684, 3631, 2401, 10818, 9468, 7529, 9783, 9046, 4079, 2470, 3878, 0, 5746, 4958, 5671, 5210, 4783, 6101, 5414, 5775, 5304, 5518, 5873, 14368, 13689, 12866, 12865, 10909, 5012, 5947, 4289, 6500, 4078, 7311, 7490, 6326, 6431, 5399, 4440, 4954, 5408, 3336, 3080, 5460, 7397, 5694, 6986, 7549, 7641, 8868, 7942, 7057, 6056, 8324, 9694, 7683, 9801, 8811, 7526, 6983, 5332, 6032, 6110, 5957, 4489, 5341, 3559, 6463 |
  11206, 11907, 5988, 7905, 3148, 15812, 13281, 16240, 17399, 16070, 11759, 17862, 15986, 12905, 14681, 7773, 7890, 7805, 6951, 6883, 8819, 7867, 7854, 8235, 8610, 8676, 8670, 9462, 9400, 8097, 12197, 12885, 12090, 9796, 12483, 12664, 14491, 14455, 12907, 16245, 4991, 4295, 6054, 3683, 4692, 12672, 12100, 9432, 11667, 10537, 2393, 3578, 3483, 5746, 0, 7993, 8358, 7515, 6869, 8971, 6476, 7683, 6992, 7918, 7071, 17294, 16259, 16126, 15536, 13613, 8594, 9088, 7563, 9665, 8046, 4693, 5765, 4384, 5214, 5249, 8816, 9648, 9296, 8770, 8005, 3135, 3457, 1540, 1526, 2470, 7169, 7205, 6351, 7135, 6254, 2590, 4065, 1954, 4060, 3323, 2396, 3907, 4016, 1370, 4252, 11201, 9930, 10761, 9205, 11446 |
  18784, 19602, 13830, 15644, 11071, 9943, 6117, 10069, 11067, 9357, 4269, 10042, 8099, 5603, 7158, 4159, 3293, 1867, 1083, 3545, 3076, 2324, 3892, 3266, 3983, 1945, 1070, 2259, 1750, 1224, 4274, 5070, 4113, 1861, 4697, 4673, 6589, 6463, 4981, 8264, 3003, 3766, 2419, 4310, 3626, 5862, 4571, 2671, 4835, 4204, 7710, 4905, 8104, 4958, 7993, 0, 742, 909, 1321, 1159, 2329, 1437, 1637, 851, 2201, 9658, 8845, 8303, 8040, 6063, 827, 1124, 669, 1721, 1313, 6159, 5464, 5274, 4653, 3588, 1941, 2753, 1555, 3940, 2819, 5536, 7314, 6932, 9519, 8405, 4443, 6173, 5567, 3672, 3249, 10002, 11894, 9743, 11348, 9803, 10353, 10872, 9629, 8992, 10349, 4697, 4409, 4828, 4802, 4401 |
  18965, 20080, 14263, 16105, 11473, 9205, 5441, 9340, 10348, 8656, 4428, 9926, 7953, 5780, 7217, 4894, 4019, 2592, 1439, 4286, 2403, 1805, 3390, 2688, 3378, 1233, 357, 1526, 1104, 652, 4154, 5025, 3755, 1867, 4169, 4416, 6447, 6138, 4841, 8008, 3416, 4071, 3075, 4696, 4188, 5147, 3948, 1930, 4111, 3462, 8248, 5444, 8702, 5671, 8358, 742, 0, 858, 1493, 614, 2247, 1048, 1544, 493, 1931, 9099, 8230, 7808, 7438, 5461, 1272, 843, 1400, 1339, 2011, 6091, 5269, 5280, 4567, 3616, 2514, 3223, 1824, 4624, 3535, 5715, 7371, 7202, 9883, 8566, 4053, 5810, 5296, 3290, 3075, 10240, 12173, 10039, 11542, 9946, 10741, 11395, 10218, 9422, 10925, 5121, 5003, 5345, 5481, 4708 |
  18111, 19274, 13439, 15292, 10639, 9636, 6100, 9830, 10877, 9243, 5129, 10760, 8793, 6473, 7981, 4765, 3957, 2574, 714, 4010, 2445, 1529, 3042, 2491, 3222, 1507, 1155, 2114, 1892, 708, 4982, 5830, 4613, 2628, 4981, 5272, 7285, 6996, 5676, 8865, 2613, 3222, 2534, 3869, 3484, 5714, 4691, 2342, 4662, 3839, 7493, 4705, 8003, 5210, 7515, 909, 858, 0, 647, 1470, 1457, 626, 747, 405, 1293, 9877, 8960, 8626, 8184, 6214, 1729, 1673, 1249, 2197, 2112, 5312, 4569, 4464, 3793, 2786, 2828, 3660, 2431, 4700, 3526, 4859, 6541, 6345, 9039, 7713, 3543, 5266, 4660, 2774, 2353, 9381, 11315, 9182, 10686, 9097, 9903, 10623, 9507, 8600, 10198, 5606, 5263, 5718, 5562, 5303 |
  17511, 18629, 12791, 14646, 9991, 10125, 6706, 10349, 11415, 9813, 5586, 11333, 9377, 6914, 8480, 4596, 3860, 2577, 384, 3745, 2811, 1775, 3095, 2697, 3420, 2049, 1802, 2725, 2540, 1301, 5555, 6377, 5246, 3163, 5629, 5885, 7867, 7627, 6256, 9482, 1975, 2578, 2104, 3222, 2901, 6283, 5327, 2890, 5230, 4337, 6868, 4093, 7407, 4783, 6869, 1321, 1493, 647, 0, 2107, 1089, 1023, 565, 1053, 1220, 10518, 9587, 9274, 8816, 6850, 2128, 2274, 1343, 2822, 2243, 4849, 4218, 3953, 3355, 2267, 3054, 3941, 2871, 4688, 3485, 4254, 5995, 5713, 8393, 7118, 3426, 5077, 4382, 2682, 2033, 8760, 10684, 8547, 10080, 8509, 9255, 9989, 8901, 7953, 9584, 5887, 5378, 5912, 5537, 5672 |
  19566, 20677, 14869, 16706, 12083, 8878, 4963, 8970, 9947, 8216, 4011, 9352, 7373, 5361, 6720, 5133, 4232, 2830, 2038, 4626, 2495, 2149, 3690, 2921, 3555, 1315, 377, 1243, 605, 1098, 3597, 4491, 3142, 1443, 3578, 3816, 5871, 5526, 4272, 7403, 4019, 4685, 3577, 5305, 4750, 4743, 3412, 1771, 3734, 3242, 8824, 6018, 9249, 6101, 8971, 1159, 614, 1470, 2107, 0, 2819, 1557, 2130, 1088, 2441, 8525, 7689, 7210, 6888, 4910, 1304, 408, 1817, 740, 2215, 6635, 5763, 5851, 5112, 4201, 2518, 3086, 1605, 4730, 3727, 6322, 7951, 7816, 10496, 9167, 4437, 6196, 5747, 3695, 3600, 10850, 12786, 10652, 12147, 10544, 11352, 11978, 10771, 10027, 11485, 4897, 4965, 5213, 5569, 4393 |
  16774, 18359, 12460, 14358, 9625, 9835, 6823, 10137, 11248, 9755, 6584, 12170, 10192, 7926, 9436, 5545, 4868, 3644, 1465, 4623, 2482, 1432, 2248, 2102, 2749, 2209, 2454, 3010, 3085, 1759, 6402, 7269, 5910, 4080, 6085, 6628, 8689, 8288, 7086, 10199, 2080, 2276, 2853, 3044, 3223, 6271, 5636, 2958, 5238, 4181, 6853, 4219, 7533, 5414, 6476, 2329, 2247, 1457, 1089, 2819, 0, 1296, 711, 1754, 610, 10821, 9788, 9702, 9060, 7141, 3156, 3090, 2433, 3559, 3332, 3856, 3142, 3033, 2336, 1390, 4141, 5022, 3879, 5732, 4526, 3586, 5132, 5169, 7973, 6383, 2399, 4000, 3292, 1700, 944, 8126, 10100, 8006, 9376, 7744, 8870, 9875, 8970, 7668, 9604, 6969, 6460, 7002, 6570, 6726 |
  18070, 19519, 13648, 15526, 10826, 9104, 5728, 9325, 10393, 8801, 5476, 10903, 8920, 6829, 8256, 5391, 4582, 3193, 1257, 4625, 1836, 908, 2455, 1869, 2599, 1044, 1182, 1786, 1789, 467, 5154, 6045, 4614, 2914, 4816, 5341, 7422, 6991, 5827, 8905, 2937, 3403, 3091, 4114, 3919, 5274, 4423, 1879, 4221, 3314, 7839, 5088, 8411, 5775, 7683, 1437, 1048, 626, 1023, 1557, 1296, 0, 692, 613, 888, 9623, 8645, 8450, 7891, 5943, 2206, 1875, 1868, 2289, 2708, 5078, 4224, 4308, 3555, 2686, 3378, 4170, 2843, 5315, 4147, 4871, 6416, 6429, 9195, 7679, 3034, 4783, 4248, 2266, 2044, 9412, 11378, 9271, 10671, 9040, 10079, 10935, 9897, 8826, 10569, 6101, 5842, 6262, 6177, 5734 |
  17439, 18827, 12955, 14833, 10134, 9672, 6405, 9923, 11006, 9444, 5877, 11471, 9497, 7220, 8724, 5161, 4418, 3109, 935, 4309, 2315, 1249, 2531, 2144, 2862, 1721, 1774, 2478, 2447, 1116, 5699, 6560, 5249, 3369, 5501, 5946, 7992, 7632, 6386, 9528, 2277, 2711, 2641, 3426, 3312, 5925, 5116, 2539, 4876, 3913, 7171, 4440, 7769, 5304, 6992, 1637, 1544, 747, 565, 2130, 711, 692, 0, 1051, 659, 10316, 9333, 9138, 8581, 6635, 2464, 2385, 1828, 2870, 2729, 4568, 3828, 3736, 3047, 2072, 3503, 4364, 3176, 5231, 4032, 4211, 5826, 5750, 8505, 7041, 2898, 4584, 3938, 2143, 1611, 8750, 10707, 8592, 10027, 8414, 9387, 10254, 9244, 8134, 9907, 6313, 5884, 6385, 6084, 6038 |
  18478, 19680, 13844, 15698, 11043, 9321, 5715, 9495, 10531, 8879, 4888, 10420, 8446, 6238, 7699, 4937, 4096, 2680, 1088, 4241, 2255, 1475, 3051, 2415, 3133, 1201, 754, 1733, 1487, 403, 4648, 5516, 4227, 2343, 4575, 4903, 6941, 6611, 5335, 8492, 3018, 3623, 2862, 4275, 3869, 5352, 4290, 2011, 4303, 3531, 7893, 5100, 8390, 5518, 7918, 851, 493, 405, 1053, 1088, 1754, 613, 1051, 0, 1465, 9472, 8561, 8220, 7783, 5812, 1594, 1336, 1380, 1825, 2156, 5602, 4799, 4786, 4078, 3122, 2782, 3560, 2233, 4780, 3638, 5234, 6877, 6736, 9441, 8079, 3647, 5395, 4846, 2878, 2595, 9764, 11704, 9576, 11059, 9457, 10306, 11025, 9897, 9006, 10592, 5488, 5258, 5659, 5643, 5125 |
  17259, 18962, 13058, 14960, 10220, 9248, 6218, 9538, 10645, 9145, 6352, 11775, 9789, 7703, 9144, 5815, 5077, 3765, 1594, 4948, 1881, 821, 1876, 1567, 2259, 1647, 2064, 2456, 2616, 1343, 6036, 6932, 5446, 3798, 5544, 6198, 8295, 7810, 6704, 9741, 2650, 2887, 3242, 3654, 3765, 5660, 5061, 2362, 4628, 3572, 7460, 4806, 8127, 5873, 7071, 2201, 1931, 1293, 1220, 2441, 610, 888, 659, 1465, 0, 10235, 9188, 9143, 8466, 6558, 3014, 2763, 2470, 3167, 3366, 4200, 3338, 3463, 2680, 1906, 4115, 4953, 3691, 5889, 4691, 4135, 5576, 5741, 8563, 6888, 2259, 3973, 3384, 1495, 1160, 8663, 10650, 8571, 9885, 8230, 9463, 10486, 9572, 8274, 10210, 6898, 6524, 7004, 6743, 6577 |
  27101, 29140, 23270, 25149, 20442, 5655, 4181, 4970, 4805, 3517, 8224, 6626, 5742, 8451, 7694, 12796, 11931, 10854, 10534, 12701, 8632, 9463, 9962, 9316, 9230, 8618, 8752, 7837, 7999, 9234, 6697, 6853, 5846, 8301, 4965, 5818, 5821, 4338, 6287, 4507, 12490, 13027, 12059, 13727, 13275, 5011, 5200, 7876, 5821, 7034, 17347, 14542, 17760, 14368, 17294, 9658, 9099, 9877, 10518, 8525, 10821, 9623, 10316, 9472, 10235, 0, 1388, 1704, 1820, 3681, 9388, 8549, 10269, 7958, 10294, 13870, 12663, 13456, 12560, 12115, 9992, 9754, 8963, 11898, 11445, 14346, 15485, 15972, 18795, 16963, 10894, 12104, 12303, 10545, 11178, 18817, 20829, 18789, 19928, 18209, 19690, 20493, 19286, 18449, 20007, 10095, 11338, 10908, 12464, 9178 |
  25859, 28146, 22247, 24147, 19407, 4439, 2996, 3820, 3907, 2316, 8022, 7495, 6302, 8468, 8001, 12270, 11379, 10204, 9644, 12070, 7498, 8393, 8760, 8157, 8012, 7614, 7875, 6867, 7127, 8287, 6426, 6772, 5349, 7677, 4261, 5529, 6045, 4406, 6148, 5137, 11560, 12033, 11264, 12759, 12417, 3747, 4281, 6830, 4643, 5841, 16453, 13661, 16932, 13689, 16259, 8845, 8230, 8960, 9587, 7689, 9788, 8645, 9333, 8561, 9188, 1388, 0, 2100, 835, 2785, 8676, 7770, 9484, 7197, 9616, 12666, 11442, 12305, 11403, 11036, 9419, 9300, 8340, 11454, 10877, 13253, 14298, 14895, 17743, 15803, 9674, 10813, 11058, 9374, 10070, 17677, 19695, 17688, 18748, 17020, 18649, 19574, 18448, 17453, 19151, 9903, 11017, 10681, 12088, 8983 |
  26265, 27887, 22065, 23913, 19261, 6445, 3610, 5878, 6006, 4373, 6541, 5416, 4221, 6746, 6044, 11210, 10362, 9354, 9246, 11175, 7712, 8420, 9145, 8424, 8461, 7498, 7477, 6692, 6733, 8029, 5042, 5154, 4318, 6810, 3645, 4181, 4138, 2634, 4599, 3038, 11225, 11832, 10662, 12496, 11928, 4528, 4104, 6835, 5091, 6274, 16013, 13208, 16363, 12866, 16126, 8303, 7808, 8626, 9274, 7210, 9702, 8450, 9138, 8220, 9143, 1704, 2100, 0, 1736, 2725, 7948, 7179, 8880, 6582, 8818, 13009, 11847, 12495, 11619, 11048, 8449, 8148, 7462, 10278, 9888, 13278, 14574, 14871, 17643, 15991, 10099, 11475, 11549, 9656, 10167, 17801, 19793, 17709, 18981, 17288, 18519, 19175, 17893, 17226, 18628, 8404, 9674, 9222, 10815, 7491 |
  25281, 27407, 21519, 23411, 18685, 4734, 2360, 4209, 4488, 2724, 7213, 7119, 5765, 7703, 7332, 11435, 10544, 9375, 8860, 11241, 6826, 7683, 8142, 7504, 7409, 6869, 7085, 6107, 6334, 7521, 5611, 5992, 4515, 6845, 3430, 4716, 5365, 3700, 5360, 4662, 10792, 11289, 10458, 12005, 11627, 3201, 3493, 6104, 4002, 5214, 15676, 12878, 16136, 12865, 15536, 8040, 7438, 8184, 8816, 6888, 9060, 7891, 8581, 7783, 8466, 1820, 835, 1736, 0, 1978, 7854, 6957, 8675, 6380, 8790, 12051, 10842, 11648, 10750, 10332, 8584, 8465, 7509, 10619, 10043, 12559, 13669, 14193, 17029, 15154, 9073, 10294, 10483, 8731, 9383, 17014, 19028, 17000, 18114, 16393, 17929, 18806, 17656, 16712, 18364, 9092, 10189, 9864, 11256, 8173 |
  23566, 25462, 19588, 21469, 16760, 5360, 1136, 5087, 5738, 3856, 5669, 7196, 5457, 6405, 6465, 9548, 8647, 7435, 6885, 9304, 5019, 5797, 6428, 5724, 5737, 4936, 5108, 4156, 4356, 5560, 4067, 4670, 2777, 4932, 1539, 3226, 4567, 2986, 4015, 4656, 8825, 9346, 8481, 10051, 9649, 1995, 1523, 4206, 2375, 3549, 13702, 10903, 14158, 10909, 13613, 6063, 5461, 6214, 6850, 4910, 7141, 5943, 6635, 5812, 6558, 3681, 2785, 2725, 1978, 0, 5896, 4984, 6699, 4413, 6842, 10308, 9134, 9832, 8945, 8446, 6686, 6648, 5591, 8787, 8139, 10679, 11892, 12299, 15115, 13337, 7380, 8753, 8826, 6958, 7526, 15173, 17178, 15122, 16318, 14612, 16008, 16837, 15677, 14769, 16386, 7501, 8457, 8223, 9468, 6603 |
  19496, 20057, 14347, 16125, 11626, 10148, 6104, 10213, 11160, 9391, 3460, 9330, 7412, 4785, 6370, 3852, 2944, 1578, 1842, 3432, 3665, 3051, 4636, 3957, 4651, 2477, 1452, 2547, 1876, 1901, 3604, 4341, 3659, 1210, 4438, 4105, 5908, 5932, 4314, 7658, 3623, 4452, 2732, 4925, 4061, 5973, 4471, 3061, 4992, 4546, 8122, 5343, 8418, 5012, 8594, 827, 1272, 1729, 2128, 1304, 3156, 2206, 2464, 1594, 3014, 9388, 8676, 7948, 7854, 5896, 0, 1004, 1031, 1497, 962, 6977, 6292, 6077, 5475, 4393, 1248, 1967, 751, 3429, 2434, 6274, 8097, 7610, 10114, 9141, 5237, 6978, 6390, 4467, 4076, 10691, 12550, 10392, 12061, 10545, 10923, 11288, 9948, 9526, 10689, 3895, 3734, 4078, 4272, 3574 |
  19781, 20726, 14947, 16766, 12180, 9145, 5126, 9210, 10162, 8404, 3630, 9089, 7120, 4982, 6381, 4856, 3947, 2576, 2137, 4414, 2903, 2533, 4088, 3326, 3963, 1723, 742, 1594, 886, 1436, 3313, 4181, 3003, 1056, 3584, 3611, 5612, 5370, 4004, 7209, 4106, 4826, 3510, 5407, 4749, 4971, 3521, 2148, 3988, 3582, 8833, 6029, 9211, 5947, 9088, 1124, 843, 1673, 2274, 408, 3090, 1875, 2385, 1336, 2763, 8549, 7770, 7179, 6957, 4984, 1004, 0, 1721, 596, 1958, 6935, 6099, 6121, 5410, 4453, 2162, 2688, 1203, 4395, 3436, 6525, 8209, 7980, 10614, 9384, 4817, 6577, 6105, 4068, 3914, 11034, 12950, 10807, 12352, 10770, 11457, 11996, 10738, 10107, 11464, 4489, 4583, 4812, 5223, 3989 |
  18482, 19064, 13331, 15121, 10600, 10605, 6780, 10737, 11737, 10025, 4404, 10351, 8441, 5695, 7340, 3556, 2721, 1324, 978, 2890, 3635, 2776, 4284, 3738, 4467, 2557, 1738, 2925, 2415, 1783, 4636, 5361, 4634, 2235, 5304, 5123, 6938, 6942, 5346, 8687, 2594, 3438, 1789, 3893, 3063, 6532, 5219, 3317, 5504, 4852, 7143, 4348, 7492, 4289, 7563, 669, 1400, 1249, 1343, 1817, 2433, 1868, 1828, 1380, 2470, 10269, 9484, 8880, 8675, 6699, 1031, 1721, 0, 2311, 902, 6126, 5555, 5186, 4660, 3522, 1717, 2616, 1754, 3451, 2279, 5287, 7155, 6588, 9083, 8147, 4726, 6408, 5726, 3965, 3377, 9670, 11521, 9363, 11049, 9553, 9895, 10309, 9021, 8504, 9750, 4554, 4056, 4570, 4312, 4389 |
  20303, 21321, 15537, 17359, 12765, 8731, 4611, 8760, 9684, 7902, 3419, 8615, 6634, 4753, 6034, 5303, 4390, 3070, 2715, 4930, 2959, 2804, 4286, 3483, 4055, 1864, 1107, 1460, 752, 1824, 2871, 3780, 2426, 972, 2993, 3078, 5134, 4804, 3538, 6668, 4691, 5392, 4101, 5989, 5345, 4522, 2974, 2048, 3581, 3335, 9430, 6625, 9804, 6500, 9665, 1721, 1339, 2197, 2822, 740, 3559, 2289, 2870, 1825, 3167, 7958, 7197, 6582, 6380, 4413, 1497, 596, 2311, 0, 2458, 7366, 6471, 6590, 5844, 4941, 2507, 2864, 1422, 4748, 3874, 7055, 8691, 8536, 11191, 9904, 5084, 6835, 6431, 4360, 4327, 11579, 13507, 11369, 12882, 11282, 12039, 12593, 11332, 10696, 12058, 4516, 4805, 4934, 5548, 3912 |
  19095, 19313, 13671, 15410, 11001, 11090, 7067, 11167, 12120, 10354, 3737, 9816, 7958, 4969, 6681, 2918, 2022, 618, 1870, 2471, 4388, 3613, 5154, 4566, 5288, 3242, 2281, 3442, 2810, 2537, 4236, 4850, 4503, 2008, 5365, 4850, 6480, 6688, 4934, 8319, 3205, 4108, 2016, 4449, 3391, 6929, 5430, 3917, 5938, 5433, 7369, 4646, 7590, 4078, 8046, 1313, 2011, 2112, 2243, 2215, 3332, 2708, 2729, 2156, 3366, 10294, 9616, 8818, 8790, 6842, 962, 1958, 902, 2458, 0, 6970, 6443, 6009, 5527, 4370, 862, 1777, 1371, 2627, 1527, 5999, 7924, 7193, 9548, 8830, 5624, 7310, 6625, 4861, 4276, 10270, 12064, 9905, 11679, 10237, 10321, 10525, 9118, 8887, 9870, 3685, 3158, 3669, 3489, 3597 |
  13257, 16145, 10243, 12205, 7476, 11459, 9694, 11972, 13150, 12038, 10428, 15974, 13987, 11762, 13292, 8413, 8005, 7109, 5165, 7369, 5297, 4720, 3909, 4585, 4654, 5732, 6260, 6516, 6800, 5541, 10232, 11116, 9614, 7936, 9550, 10389, 12495, 11947, 10904, 13901, 4167, 3332, 5671, 3681, 4995, 8924, 8921, 6228, 8049, 6837, 6371, 5017, 7414, 7311, 4693, 6159, 6091, 5312, 4849, 6635, 3856, 5078, 4568, 5602, 4200, 13870, 12666, 13009, 12051, 10308, 6977, 6935, 6126, 7366, 6970, 0, 1251, 1022, 1524, 2603, 7826, 8737, 7715, 8962, 7816, 2029, 1663, 3174, 5818, 3247, 2996, 2526, 1767, 3352, 3040, 5162, 7169, 5397, 6096, 4360, 6729, 8600, 8446, 6061, 8835, 10654, 9898, 10558, 9708, 10510 |
  14442, 17366, 11451, 13412, 8659, 10224, 8482, 10727, 11905, 10786, 9686, 15022, 13029, 11035, 12479, 8274, 7747, 6682, 4576, 7255, 4155, 3715, 2707, 3435, 3433, 4730, 5386, 5481, 5846, 4667, 9338, 10250, 8612, 7137, 8452, 9419, 11555, 10906, 9988, 12872, 4071, 3417, 5469, 3985, 5093, 7696, 7782, 5136, 6844, 5630, 7197, 5420, 8179, 7490, 5765, 5464, 5269, 4569, 4218, 5763, 3142, 4224, 3828, 4799, 3338, 12663, 11442, 11847, 10842, 9134, 6292, 6099, 5555, 6471, 6443, 1251, 0, 1454, 1064, 2214, 7271, 8160, 7001, 8674, 7485, 2785, 2915, 4224, 6984, 4495, 1769, 1524, 591, 2230, 2216, 6410, 8420, 6619, 7340, 5603, 7905, 9649, 9332, 7134, 9782, 10106, 9511, 10103, 9471, 9866 |
  13811, 16141, 10205, 12160, 7379, 11462, 9311, 11921, 13091, 11859, 9538, 15203, 13224, 10859, 12430, 7390, 6987, 6120, 4244, 6347, 4824, 4092, 3603, 4147, 4371, 5073, 5483, 5878, 6078, 4775, 9434, 10294, 8909, 7091, 8957, 9650, 11722, 11272, 10119, 13204, 3145, 2314, 4652, 2712, 3987, 8599, 8391, 5662, 7662, 6468, 5743, 4098, 6732, 6326, 4384, 5274, 5280, 4464, 3953, 5851, 3033, 4308, 3736, 4786, 3463, 13456, 12305, 12495, 11648, 9832, 6077, 6121, 5186, 6590, 6009, 1022, 1454, 0, 904, 1686, 6869, 7783, 6824, 7946, 6806, 1332, 2113, 2850, 5689, 3507, 2817, 2975, 2041, 2936, 2344, 5372, 7393, 5445, 6487, 4796, 6616, 8235, 7878, 5743, 8335, 9685, 8894, 9566, 8687, 9575 |
  14663, 17024, 11087, 13038, 8253, 10601, 8410, 11046, 12212, 10961, 8918, 14456, 12470, 10256, 11772, 7229, 6727, 5718, 3687, 6205, 3930, 3244, 2702, 3247, 3471, 4244, 4738, 5040, 5290, 4019, 8709, 9592, 8112, 6415, 8104, 8876, 10975, 10459, 9382, 12405, 3010, 2363, 4429, 2969, 4032, 7694, 7516, 4794, 6760, 5565, 6380, 4413, 7311, 6431, 5214, 4653, 4567, 3793, 3355, 5112, 2336, 3555, 3047, 4078, 2680, 12560, 11403, 11619, 10750, 8945, 5475, 5410, 4660, 5844, 5527, 1524, 1064, 904, 0, 1189, 6373, 7276, 6207, 7665, 6487, 2089, 2957, 3699, 6561, 4403, 1954, 2487, 1532, 2032, 1525, 6276, 8297, 6344, 7373, 5669, 7488, 9015, 8540, 6557, 9040, 9209, 8538, 9160, 8449, 9027 |
  15383, 17157, 11232, 13154, 8386, 10710, 8047, 11082, 12224, 10835, 7853, 13541, 11569, 9177, 10745, 6061, 5541, 4537, 2566, 5045, 3570, 2651, 2750, 3000, 3456, 3553, 3840, 4363, 4475, 3150, 7766, 8616, 7301, 5408, 7449, 8015, 10063, 9678, 8456, 11589, 1898, 1471, 3255, 2224, 3006, 7423, 6960, 4240, 6422, 5288, 5961, 3627, 6777, 5399, 5249, 3588, 3616, 2786, 2267, 4201, 1390, 2686, 2072, 3122, 1906, 12115, 11036, 11048, 10332, 8446, 4393, 4453, 3522, 4941, 4370, 2603, 2214, 1686, 1189, 0, 5224, 6133, 5139, 6477, 5298, 2233, 3755, 3860, 6712, 4994, 2367, 3476, 2578, 2020, 1021, 6757, 8745, 6675, 7989, 6354, 7624, 8835, 8124, 6509, 8698, 8054, 7352, 7983, 7264, 7909 |
  19911, 19924, 14348, 16053, 11721, 11237, 7048, 11255, 12154, 10343, 2942, 9070, 7255, 4132, 5872, 2862, 1961, 1034, 2695, 2730, 4912, 4257, 5832, 5183, 5887, 3726, 2699, 3753, 3047, 3123, 3645, 4153, 4147, 1757, 5162, 4353, 5804, 6176, 4316, 7700, 4046, 4957, 2762, 5266, 4131, 7022, 5370, 4289, 6087, 5745, 8000, 5348, 8131, 4440, 8816, 1941, 2514, 2828, 3054, 2518, 4141, 3378, 3503, 2782, 4115, 9992, 9419, 8449, 8584, 6686, 1248, 2162, 1717, 2507, 862, 7826, 7271, 6869, 6373, 5224, 0, 915, 1114, 2243, 1459, 6853, 8785, 8016, 10305, 9675, 6371, 8084, 7431, 5602, 5085, 11086, 12854, 10697, 12505, 11081, 11056, 11131, 9648, 9604, 10412, 2837, 2489, 2890, 3061, 2739 |
  20778, 20586, 15084, 16752, 12500, 11470, 7150, 11426, 12264, 10418, 2160, 8308, 6557, 3261, 5036, 3072, 2277, 1848, 3591, 3235, 5567, 5017, 6603, 5911, 6591, 4374, 3339, 4259, 3527, 3864, 3164, 3502, 3952, 1933, 5108, 3973, 5155, 5733, 3773, 7104, 4945, 5862, 3609, 6145, 4956, 7240, 5464, 4829, 6378, 6198, 8709, 6134, 8757, 4954, 9648, 2753, 3223, 3660, 3941, 3086, 5022, 4170, 4364, 3560, 4953, 9754, 9300, 8148, 8465, 6648, 1967, 2688, 2616, 2864, 1777, 8737, 8160, 7783, 7276, 6133, 915, 0, 1487, 2154, 1875, 7761, 9699, 8896, 11122, 10573, 7195, 8926, 8302, 6425, 5961, 11956, 13699, 11546, 13384, 11979, 11851, 11805, 10254, 10384, 11027, 1949, 1946, 2130, 2826, 1835 |
  20236, 20671, 15000, 16757, 12302, 10137, 5933, 10144, 11039, 9229, 2714, 8597, 6693, 4048, 5619, 3969, 3061, 1893, 2593, 3740, 4098, 3627, 5209, 4481, 5141, 2909, 1883, 2774, 2044, 2476, 2909, 3607, 3143, 664, 4079, 3482, 5195, 5321, 3616, 6985, 4346, 5191, 3344, 5640, 4705, 5916, 4256, 3342, 4997, 4730, 8726, 5978, 8961, 5408, 9296, 1555, 1824, 2431, 2871, 1605, 3879, 2843, 3176, 2233, 3691, 8963, 8340, 7462, 7509, 5591, 751, 1203, 1754, 1422, 1371, 7715, 7001, 6824, 6207, 5139, 1114, 1487, 0, 3337, 2550, 7023, 8848, 8343, 10811, 9889, 5871, 7625, 7075, 5106, 4784, 11425, 13272, 11112, 12801, 11293, 11608, 11886, 10489, 10195, 11241, 3310, 3403, 3608, 4128, 2891 |
  19972, 19005, 13736, 15283, 11335, 13474, 9235, 13476, 14351, 12521, 3967, 9877, 8308, 4644, 6456, 1142, 966, 2129, 4304, 1887, 7014, 6223, 7731, 7181, 7908, 5858, 4865, 5973, 5281, 5165, 5252, 5426, 6106, 3936, 7247, 6096, 7026, 7806, 5803, 9014, 4814, 5716, 3297, 5716, 4314, 9252, 7549, 6489, 8329, 7971, 7382, 5204, 7207, 3336, 8770, 3940, 4624, 4700, 4688, 4730, 5732, 5315, 5231, 4780, 5889, 11898, 11454, 10278, 10619, 8787, 3429, 4395, 3451, 4748, 2627, 8962, 8674, 7946, 7665, 6477, 2243, 2154, 3337, 0, 1206, 7558, 9584, 8342, 10138, 10154, 8112, 9723, 8950, 7370, 6644, 11262, 12817, 10722, 12734, 11520, 10758, 10316, 8630, 9260, 9409, 2628, 1170, 2020, 862, 3221 |
  19200, 18725, 13272, 14910, 10745, 12581, 8468, 12632, 13558, 11764, 4012, 10137, 8422, 4980, 6797, 1428, 515, 958, 3102, 1359, 5890, 5055, 6542, 6016, 6746, 4761, 3808, 4963, 4310, 4032, 4996, 5378, 5599, 3207, 6620, 5757, 7030, 7558, 5632, 8978, 3708, 4628, 2199, 4720, 3379, 8392, 6800, 5444, 7423, 6957, 6887, 4434, 6890, 3080, 8005, 2819, 3535, 3526, 3485, 3727, 4526, 4147, 4032, 3638, 4691, 11445, 10877, 9888, 10043, 8139, 2434, 3436, 2279, 3874, 1527, 7816, 7485, 6806, 6487, 5298, 1459, 1875, 2550, 1206, 0, 6507, 8520, 7423, 9437, 9193, 6908, 8518, 7750, 6167, 5439, 10419, 12070, 9939, 11877, 10580, 10122, 9953, 8382, 8637, 9155, 3197, 2099, 2843, 2052, 3501 |
  13257, 15001, 9064, 11004, 6220, 12677, 10260, 13106, 14267, 12961, 9689, 15578, 13629, 10961, 12627, 6843, 6593, 5974, 4453, 5804, 5763, 4883, 4723, 5144, 5483, 5780, 5979, 6588, 6655, 5322, 9805, 10603, 9457, 7397, 9670, 10131, 12118, 11841, 10508, 13724, 2831, 1903, 4309, 1891, 3312, 9607, 9193, 6473, 8625, 7466, 4418, 3062, 5425, 5460, 3135, 5536, 5715, 4859, 4254, 6322, 3586, 4871, 4211, 5234, 4135, 14346, 13253, 13278, 12559, 10679, 6274, 6525, 5287, 7055, 5999, 2029, 2785, 1332, 2089, 2233, 6853, 7761, 7023, 7558, 6507, 0, 2027, 1654, 4531, 2869, 4040, 4301, 3373, 4010, 3185, 4541, 6516, 4443, 5827, 4270, 5454, 6930, 6546, 4469, 7003, 9576, 8602, 9342, 8222, 9593 |
  11706, 14529, 8656, 10615, 5945, 13107, 11317, 13628, 14807, 13701, 11549, 17297, 15323, 12851, 14467, 8867, 8618, 7948, 6254, 7830, 6872, 6195, 5539, 6173, 6295, 7184, 7586, 7986, 8191, 6883, 11522, 12367, 11022, 9155, 11059, 11758, 13818, 13386, 12212, 15317, 4821, 3894, 6321, 3909, 5334, 10564, 10473, 7752, 9668, 8460, 5522, 4940, 6627, 7397, 3457, 7314, 7371, 6541, 5995, 7951, 5132, 6416, 5826, 6877, 5576, 15485, 14298, 14574, 13669, 11892, 8097, 8209, 7155, 8691, 7924, 1663, 2915, 2113, 2957, 3755, 8785, 9699, 8848, 9584, 8520, 2027, 0, 2140, 4341, 1596, 4647, 4079, 3415, 4940, 4453, 3506, 5507, 3802, 4449, 2724, 5221, 7303, 7429, 4770, 7708, 11550, 10618, 11347, 10250, 11519 |
  11904, 13348, 7411, 9353, 4567, 14300, 11905, 14742, 15906, 14614, 10929, 16940, 15019, 12148, 13875, 7465, 7404, 7055, 5856, 6480, 7413, 6510, 6369, 6798, 7132, 7378, 7490, 8180, 8193, 6866, 11199, 11950, 10958, 8781, 11245, 11590, 13512, 13340, 11908, 15187, 4002, 3165, 5303, 2750, 4047, 11259, 10802, 8096, 10273, 9118, 3382, 3252, 4486, 5694, 1540, 6932, 7202, 6345, 5713, 7816, 5169, 6429, 5750, 6736, 5741, 15972, 14895, 14871, 14193, 12299, 7610, 7980, 6588, 8536, 7193, 3174, 4224, 2850, 3699, 3860, 8016, 8896, 8343, 8342, 7423, 1654, 2140, 0, 2877, 1856, 5651, 5672, 4811, 5660, 4834, 3082, 4970, 2842, 4489, 3180, 3801, 5434, 5336, 2909, 5677, 10596, 9461, 10256, 8897, 10727 |
  9857, 10471, 4533, 6478, 1692, 17151, 14759, 17607, 18774, 17492, 13246, 19363, 17497, 14371, 16158, 9099, 9289, 9286, 8477, 8262, 10278, 9350, 9244, 9672, 10008, 10179, 10194, 10971, 10921, 9614, 13715, 14394, 13617, 11317, 14001, 14188, 16005, 15981, 14425, 17768, 6516, 5817, 7545, 5209, 6174, 14129, 13606, 10924, 13135, 11989, 3127, 5004, 4014, 6986, 1526, 9519, 9883, 9039, 8393, 10496, 7973, 9195, 8505, 9441, 8563, 18795, 17743, 17643, 17029, 15115, 10114, 10614, 9083, 11191, 9548, 5818, 6984, 5689, 6561, 6712, 10305, 11122, 10811, 10138, 9437, 4531, 4341, 2877, 0, 2923, 8505, 8341, 7554, 8537, 7702, 1895, 2708, 1023, 3136, 3102, 927, 3139, 3957, 1111, 3903, 12623, 11306, 12147, 10515, 12905 |
  10399, 12938, 7083, 9038, 4431, 14702, 12812, 15219, 16397, 15269, 12542, 18446, 16495, 13799, 15484, 9305, 9206, 8754, 7323, 8307, 8331, 7573, 7063, 7650, 7826, 8528, 8816, 9338, 9468, 8140, 12672, 13472, 12289, 10266, 12426, 12982, 14985, 14670, 13374, 16570, 5628, 4723, 7029, 4474, 5841, 12084, 11888, 9156, 11162, 9963, 4825, 5108, 5932, 7549, 2470, 8405, 8566, 7713, 7118, 9167, 6383, 7679, 7041, 8079, 6888, 16963, 15803, 15991, 15154, 13337, 9141, 9384, 8147, 9904, 8830, 3247, 4495, 3507, 4403, 4994, 9675, 10573, 9889, 10154, 9193, 2869, 1596, 1856, 2923, 0, 6199, 5668, 5008, 6429, 5824, 1914, 3928, 2245, 2996, 1407, 3741, 6020, 6451, 3580, 6601, 12335, 11256, 12035, 10732, 12409 |
  16209, 18958, 13023, 14978, 10196, 8649, 6713, 9104, 10274, 9074, 8447, 13471, 11480, 9798, 11114, 7942, 7264, 6002, 3810, 7005, 2461, 2289, 956, 1749, 1664, 3240, 4076, 3912, 4390, 3403, 7897, 8837, 7040, 5874, 6767, 7879, 10036, 9271, 8510, 11245, 4132, 3838, 5211, 4583, 5295, 5929, 6059, 3493, 5076, 3863, 8233, 5994, 9104, 7641, 7169, 4443, 4053, 3543, 3426, 4437, 2399, 3034, 2898, 3647, 2259, 10894, 9674, 10099, 9073, 7380, 5237, 4817, 4726, 5084, 5624, 2996, 1769, 2817, 1954, 2367, 6371, 7195, 5871, 8112, 6908, 4040, 4647, 5651, 8505, 6199, 0, 1759, 1463, 770, 1589, 8106, 10125, 8244, 9091, 7357, 9432, 10955, 10401, 8510, 10934, 9132, 8781, 9261, 8958, 8761 |
  15097, 18607, 12732, 14693, 9990, 9097, 7953, 9661, 10839, 9890, 10206, 15131, 13145, 11557, 12855, 9450, 8837, 7645, 5459, 8465, 4088, 4047, 2587, 3417, 3091, 4980, 5835, 5611, 6129, 5161, 9625, 10570, 8708, 7633, 8321, 9563, 11724, 10871, 10223, 12845, 5374, 4832, 6656, 5457, 6467, 7094, 7550, 5146, 6385, 5208, 8718, 6900, 9704, 8868, 7205, 6173, 5810, 5266, 5077, 6196, 4000, 4783, 4584, 5395, 3973, 12104, 10813, 11475, 10294, 8753, 6978, 6577, 6408, 6835, 7310, 2526, 1524, 2975, 2487, 3476, 8084, 8926, 7625, 9723, 8518, 4301, 4079, 5672, 8341, 5668, 1759, 0, 961, 2519, 3079, 7560, 9525, 7878, 8310, 6588, 9248, 11107, 10846, 8575, 11283, 10870, 10456, 10970, 10553, 10516 |
  14802, 17911, 12004, 13966, 9224, 9694, 8123, 10213, 11392, 10319, 9724, 14904, 12911, 11077, 12463, 8614, 8041, 6911, 4755, 7611, 3923, 3633, 2419, 3207, 3090, 4628, 5374, 5340, 5769, 4668, 9279, 10207, 8476, 7156, 8230, 9304, 11455, 10727, 9910, 12700, 4472, 3888, 5808, 4499, 5540, 7310, 7521, 4946, 6500, 5291, 7781, 5941, 8755, 7942, 6351, 5567, 5296, 4660, 4382, 5747, 3292, 4248, 3938, 4846, 3384, 12303, 11058, 11549, 10483, 8826, 6390, 6105, 5726, 6431, 6625, 1767, 591, 2041, 1532, 2578, 7431, 8302, 7075, 8950, 7750, 3373, 3415, 4811, 7554, 5008, 1463, 961, 0, 2083, 2348, 6921, 8920, 7163, 7795, 6057, 8472, 10238, 9919, 7721, 10372, 10251, 9738, 10294, 9764, 9960 |
  16610, 19009, 13071, 15014, 10228, 8714, 6384, 9112, 10267, 8955, 7698, 12825, 10832, 9050, 10395, 7238, 6536, 5252, 3065, 6323, 1944, 1556, 732, 1234, 1474, 2544, 3328, 3265, 3687, 2644, 7198, 8130, 6402, 5124, 6223, 7223, 9372, 8678, 7826, 10647, 3594, 3447, 4549, 4225, 4766, 5662, 5571, 2906, 4734, 3534, 7981, 5582, 8790, 7057, 7135, 3672, 3290, 2774, 2682, 3695, 1700, 2266, 2143, 2878, 1495, 10545, 9374, 9656, 8731, 6958, 4467, 4068, 3965, 4360, 4861, 3352, 2230, 2936, 2032, 2020, 5602, 6425, 5106, 7370, 6167, 4010, 4940, 5660, 8537, 6429, 770, 2519, 2083, 0, 1054, 8308, 10329, 8367, 9383, 7664, 9462, 10823, 10145, 8442, 10716, 8362, 8019, 8492, 8219, 7997 |
  16156, 18159, 12229, 14158, 9383, 9693, 7076, 10061, 11202, 9819, 7474, 12934, 10946, 8822, 10292, 6398, 5761, 4575, 2407, 5438, 2578, 1750, 1761, 1983, 2443, 2730, 3224, 3533, 3764, 2503, 7196, 8089, 6587, 4938, 6613, 7351, 9454, 8939, 7865, 10881, 2561, 2400, 3636, 3182, 3731, 6426, 6065, 3332, 5439, 4287, 6962, 4529, 7750, 6056, 6254, 3249, 3075, 2353, 2033, 3600, 944, 2044, 1611, 2595, 1160, 11178, 10070, 10167, 9383, 7526, 4076, 3914, 3377, 4327, 4276, 3040, 2216, 2344, 1525, 1021, 5085, 5961, 4784, 6644, 5439, 3185, 4453, 4834, 7702, 5824, 1589, 3079, 2348, 1054, 0, 7646, 9652, 7619, 8817, 7138, 8619, 9857, 9120, 7526, 9706, 7910, 7397, 7945, 7474, 7650 |
  8825, 11063, 5279, 7213, 2869, 16613, 14683, 17133, 18312, 17179, 14007, 20021, 18097, 15214, 16951, 10304, 10353, 10110, 8922, 9376, 10188, 9383, 8957, 9519, 9723, 10310, 10513, 11120, 11196, 9863, 14274, 15032, 13991, 11857, 14206, 14646, 16589, 16375, 14983, 18243, 7085, 6241, 8351, 5821, 7045, 13970, 13704, 10974, 13034, 11841, 4815, 6061, 5804, 8324, 2590, 10002, 10240, 9381, 8760, 10850, 8126, 9412, 8750, 9764, 8663, 18817, 17677, 17801, 17014, 15173, 10691, 11034, 9670, 11579, 10270, 5162, 6410, 5372, 6276, 6757, 11086, 11956, 11425, 11262, 10419, 4541, 3506, 3082, 1895, 1914, 8106, 7560, 6921, 8308, 7646, 0, 2021, 872, 1479, 1332, 2350, 4908, 5853, 2955, 5778, 13611, 12408, 13224, 11741, 13782 |
  7157, 9195, 3682, 5497, 2308, 18603, 16700, 19134, 20313, 19197, 15793, 21865, 19963, 16959, 18726, 11793, 11949, 11852, 10822, 10934, 12203, 11383, 10979, 11538, 11745, 12296, 12457, 13105, 13154, 11823, 16150, 16877, 15928, 13734, 16185, 16558, 18459, 18310, 16860, 20155, 8927, 8128, 10095, 7632, 8745, 15991, 15702, 12975, 15052, 13861, 5792, 7641, 6569, 9694, 4065, 11894, 12173, 11315, 10684, 12786, 10100, 11378, 10707, 11704, 10650, 20829, 19695, 19793, 19028, 17178, 12550, 12950, 11521, 13507, 12064, 7169, 8420, 7393, 8297, 8745, 12854, 13699, 13272, 12817, 12070, 6516, 5507, 4970, 2708, 3928, 10125, 9525, 8920, 10329, 9652, 2021, 0, 2160, 1530, 2992, 2377, 4653, 6130, 3738, 5798, 15266, 13981, 14817, 13214, 15505 |
  9261, 10748, 4853, 6814, 2202, 16842, 14693, 17333, 18507, 17304, 13635, 19704, 17804, 14807, 16569, 9727, 9837, 9699, 8675, 8835, 10191, 9326, 9047, 9549, 9815, 10212, 10330, 11017, 11036, 9709, 13994, 14717, 13793, 11579, 14086, 14412, 16301, 16173, 14704, 18007, 6769, 5981, 7939, 5472, 6596, 14017, 13632, 10916, 13052, 11878, 4018, 5524, 4973, 7683, 1954, 9743, 10039, 9182, 8547, 10652, 8006, 9271, 8592, 9576, 8571, 18789, 17688, 17709, 17000, 15122, 10392, 10807, 9363, 11369, 9905, 5397, 6619, 5445, 6344, 6675, 10697, 11546, 11112, 10722, 9939, 4443, 3802, 2842, 1023, 2245, 8244, 7878, 7163, 8367, 7619, 872, 2160, 0, 2191, 2122, 1573, 4078, 4981, 2096, 4912, 13137, 11880, 12709, 11158, 13357 |
  7436, 10630, 5213, 7011, 3487, 17406, 15764, 17967, 19146, 18114, 15413, 21387, 19448, 16637, 18359, 11782, 11821, 11542, 10265, 10850, 11303, 10567, 9989, 10612, 10743, 11525, 11800, 12335, 12461, 11130, 15623, 16402, 15277, 13209, 15423, 15959, 17938, 17659, 16328, 19551, 8480, 7610, 9787, 7239, 8499, 15013, 14877, 12146, 14115, 12909, 6209, 7537, 7146, 9801, 4060, 11348, 11542, 10686, 10080, 12147, 9376, 10671, 10027, 11059, 9885, 19928, 18748, 18981, 18114, 16318, 12061, 12352, 11049, 12882, 11679, 6096, 7340, 6487, 7373, 7989, 12505, 13384, 12801, 12734, 11877, 5827, 4449, 4489, 3136, 2996, 9091, 8310, 7795, 9383, 8817, 1479, 1530, 2191, 0, 1738, 3251, 5786, 7008, 4246, 6813, 15064, 13877, 14690, 13219, 15215 |
  9030, 12184, 6515, 8417, 4201, 15684, 14041, 16238, 17417, 16376, 13949, 19842, 17886, 15207, 16891, 10643, 10578, 10157, 8722, 9660, 9593, 8887, 8260, 8897, 9012, 9860, 10188, 10668, 10828, 9504, 14065, 14872, 13655, 11664, 13751, 14360, 16376, 16031, 14766, 17942, 7035, 6130, 8426, 5867, 7215, 13282, 13184, 10458, 12392, 11184, 5703, 6411, 6764, 8811, 3323, 9803, 9946, 9097, 8509, 10544, 7744, 9040, 8414, 9457, 8230, 18209, 17020, 17288, 16393, 14612, 10545, 10770, 9553, 11282, 10237, 4360, 5603, 4796, 5669, 6354, 11081, 11979, 11293, 11520, 10580, 4270, 2724, 3180, 3102, 1407, 7357, 6588, 6057, 7664, 7138, 1332, 2992, 2122, 1738, 0, 3668, 6200, 7005, 4060, 7003, 13732, 12632, 13419, 12076, 13814 |
  9363, 9547, 3611, 5552, 766, 18078, 15667, 18534, 19701, 18415, 13991, 20126, 18279, 15084, 16884, 9688, 9942, 10029, 9324, 8902, 11192, 10255, 10170, 10592, 10933, 11072, 11057, 11859, 11791, 10491, 14517, 15172, 14460, 12131, 14875, 15013, 16795, 16816, 15224, 18582, 7351, 6687, 8308, 6050, 6932, 15045, 14496, 11825, 14047, 12906, 3503, 5717, 4203, 7526, 2396, 10353, 10741, 9903, 9255, 11352, 8870, 10079, 9387, 10306, 9463, 19690, 18649, 18519, 17929, 16008, 10923, 11457, 9895, 12039, 10321, 6729, 7905, 6616, 7488, 7624, 11056, 11851, 11608, 10758, 10122, 5454, 5221, 3801, 927, 3741, 9432, 9248, 8472, 9462, 8619, 2350, 2377, 1573, 3251, 3668, 0, 2578, 3796, 1498, 3562, 13288, 11929, 12776, 11082, 13611 |
  10908, 8792, 3529, 4968, 2348, 19536, 16660, 19918, 21058, 19625, 13961, 20089, 18360, 14896, 16720, 9180, 9655, 10106, 9958, 8616, 12334, 11306, 11554, 11825, 12285, 11975, 11741, 12707, 12494, 11286, 14751, 15277, 14940, 12484, 15556, 15368, 16932, 17206, 15438, 18827, 8014, 7598, 8556, 6838, 7249, 16145, 15314, 12789, 15107, 14050, 3166, 5967, 3111, 6983, 3907, 10872, 11395, 10623, 9989, 11978, 9875, 10935, 10254, 11025, 10486, 20493, 19574, 19175, 18806, 16837, 11288, 11996, 10309, 12593, 10525, 8600, 9649, 8235, 9015, 8835, 11131, 11805, 11886, 10316, 9953, 6930, 7303, 5434, 3139, 6020, 10955, 11107, 10238, 10823, 9857, 4908, 4653, 4078, 5786, 6200, 2578, 0, 1871, 2544, 1251, 12940, 11459, 12307, 10443, 13423 |
  12715, 10376, 5392, 6710, 3879, 18786, 15606, 19107, 20218, 18688, 12391, 18475, 16802, 13254, 15075, 7487, 8040, 8645, 8810, 7025, 11452, 10388, 10873, 11021, 11560, 10940, 10573, 11620, 11322, 10200, 13292, 13753, 13603, 11115, 14323, 13962, 15408, 15799, 13962, 17339, 6967, 6743, 7233, 5955, 6032, 15168, 14167, 11775, 14117, 13135, 2168, 4809, 1530, 5332, 4016, 9629, 10218, 9507, 8901, 10771, 8970, 9897, 9244, 9897, 9572, 19286, 18448, 17893, 17656, 15677, 9948, 10738, 9021, 11332, 9118, 8446, 9332, 7878, 8540, 8124, 9648, 10254, 10489, 8630, 8382, 6546, 7429, 5336, 3957, 6451, 10401, 10846, 9919, 10145, 9120, 5853, 6130, 4981, 7008, 7005, 3796, 1871, 0, 2946, 778, 11258, 9748, 10590, 8690, 11794 |
  10831, 10695, 4841, 6699, 2117, 17140, 14492, 17554, 18708, 17345, 12531, 18673, 16844, 13607, 15412, 8189, 8449, 8573, 7990, 7407, 10067, 9084, 9167, 9509, 9916, 9843, 9749, 10612, 10493, 9218, 13103, 13735, 13105, 10736, 13581, 13628, 15367, 15443, 13809, 17179, 6008, 5423, 6871, 4730, 5496, 13914, 13249, 10624, 12896, 11789, 2054, 4255, 2903, 6032, 1370, 8992, 9422, 8600, 7953, 10027, 7668, 8826, 8134, 9006, 8274, 18449, 17453, 17226, 16712, 14769, 9526, 10107, 8504, 10696, 8887, 6061, 7134, 5743, 6557, 6509, 9604, 10384, 10195, 9260, 8637, 4469, 4770, 2909, 1111, 3580, 8510, 8575, 7721, 8442, 7526, 2955, 3738, 2096, 4246, 4060, 1498, 2544, 2946, 0, 3022, 11796, 10431, 11279, 9585, 12132 |
  12159, 9597, 4697, 5947, 3496, 19392, 16290, 19730, 20850, 19345, 13166, 19253, 17577, 14033, 15854, 8266, 8817, 9405, 9508, 7799, 12086, 11030, 11447, 11632, 12149, 11614, 11278, 12308, 12029, 10885, 14055, 14524, 14347, 11863, 15046, 14717, 16180, 16555, 14728, 18107, 7633, 7354, 7966, 6569, 6737, 15832, 14872, 12445, 14784, 13781, 2752, 5492, 2282, 6110, 4252, 10349, 10925, 10198, 9584, 11485, 9604, 10569, 9907, 10592, 10210, 20007, 19151, 18628, 18364, 16386, 10689, 11464, 9750, 12058, 9870, 8835, 9782, 8335, 9040, 8698, 10412, 11027, 11241, 9409, 9155, 7003, 7708, 5677, 3903, 6601, 10934, 11283, 10372, 10716, 9706, 5778, 5798, 4912, 6813, 7003, 3562, 1251, 778, 3022, 0, 12036, 10526, 11367, 9464, 12573 |
  22398, 21632, 16343, 17908, 13891, 12664, 8222, 12518, 13237, 11357, 1882, 7284, 5824, 2074, 3850, 3770, 3347, 3603, 5532, 4394, 7392, 6925, 8511, 7791, 8449, 6211, 5193, 5973, 5246, 5771, 3481, 3265, 4732, 3545, 6025, 4375, 4688, 5792, 3808, 6665, 6744, 7673, 5305, 7865, 6566, 8495, 6599, 6560, 7764, 7800, 9971, 7626, 9833, 5957, 11201, 4697, 5121, 5606, 5887, 4897, 6969, 6101, 6313, 5488, 6898, 10095, 9903, 8404, 9092, 7501, 3895, 4489, 4554, 4516, 3685, 10654, 10106, 9685, 9209, 8054, 2837, 1949, 3310, 2628, 3197, 9576, 11550, 10596, 12623, 12335, 9132, 10870, 10251, 8362, 7910, 13611, 15266, 13137, 15064, 13732, 13288, 12940, 11258, 11796, 12036, 0, 1547, 839, 2731, 920 |
  21134, 20117, 14893, 16422, 12505, 13395, 9035, 13329, 14136, 12274, 3172, 8830, 7352, 3617, 5395, 2282, 2057, 2829, 4997, 3047, 7399, 6733, 8297, 7668, 8375, 6210, 5177, 6172, 5446, 5609, 4640, 4635, 5696, 3879, 6927, 5526, 6158, 7115, 5099, 8147, 5807, 6728, 4297, 6794, 5417, 9169, 7357, 6731, 8321, 8132, 8548, 6357, 8347, 4489, 9930, 4409, 5003, 5263, 5378, 4965, 6460, 5842, 5884, 5258, 6524, 11338, 11017, 9674, 10189, 8457, 3734, 4583, 4056, 4805, 3158, 9898, 9511, 8894, 8538, 7352, 2489, 1946, 3403, 1170, 2099, 8602, 10618, 9461, 11306, 11256, 8781, 10456, 9738, 8019, 7397, 12408, 13981, 11880, 13877, 12632, 11929, 11459, 9748, 10431, 10526, 1547, 0, 853, 1201, 2297 |
  21967, 20953, 15745, 17269, 13356, 13311, 8893, 13196, 13948, 12072, 2683, 8046, 6641, 2881, 4612, 3134, 2873, 3449, 5539, 3885, 7698, 7127, 8710, 8034, 8719, 6505, 5470, 6364, 5630, 5980, 4256, 4095, 5446, 3968, 6722, 5153, 5527, 6618, 4623, 7501, 6526, 7452, 5034, 7564, 6208, 9111, 7243, 6941, 8328, 8264, 9401, 7184, 9196, 5341, 10761, 4828, 5345, 5718, 5912, 5213, 7002, 6262, 6385, 5659, 7004, 10908, 10681, 9222, 9864, 8223, 4078, 4812, 4570, 4934, 3669, 10558, 10103, 9566, 9160, 7983, 2890, 2130, 3608, 2020, 2843, 9342, 11347, 10256, 12147, 12035, 9261, 10970, 10294, 8492, 7945, 13224, 14817, 12709, 14690, 13419, 12776, 12307, 10590, 11279, 11367, 839, 853, 0, 1953, 1732 |
  20371, 19034, 13916, 15390, 11621, 14256, 9971, 14236, 15087, 13243, 4354, 9998, 8550, 4805, 6562, 1437, 1724, 2989, 5154, 2430, 7874, 7085, 8590, 8044, 8771, 6715, 5715, 6810, 6109, 6026, 5773, 5821, 6742, 4698, 7929, 6646, 7357, 8282, 6265, 9347, 5543, 6422, 4039, 6351, 4929, 10028, 8284, 7334, 9125, 8805, 7636, 5688, 7336, 3559, 9205, 4802, 5481, 5562, 5537, 5569, 6570, 6177, 6084, 5643, 6743, 12464, 12088, 10815, 11256, 9468, 4272, 5223, 4312, 5548, 3489, 9708, 9471, 8687, 8449, 7264, 3061, 2826, 4128, 862, 2052, 8222, 10250, 8897, 10515, 10732, 8958, 10553, 9764, 8219, 7474, 11741, 13214, 11158, 13219, 12076, 11082, 10443, 8690, 9585, 9464, 2731, 1201, 1953, 0, 3496 |
  22600, 22166, 16770, 18388, 14243, 11806, 7354, 11641, 12341, 10460, 961, 6680, 5090, 1478, 3299, 4346, 3767, 3672, 5345, 4809, 6855, 6501, 8073, 7315, 7937, 5702, 4723, 5369, 4661, 5360, 2565, 2367, 3846, 2969, 5145, 3458, 3861, 4886, 2892, 5850, 6780, 7696, 5431, 7977, 6761, 7666, 5756, 5957, 6980, 7105, 10385, 7902, 10334, 6463, 11446, 4401, 4708, 5303, 5672, 4393, 6726, 5734, 6038, 5125, 6577, 9178, 8983, 7491, 8173, 6603, 3574, 3989, 4389, 3912, 3597, 10510, 9866, 9575, 9027, 7909, 2739, 1835, 2891, 3221, 3501, 9593, 11519, 10727, 12905, 12409, 8761, 10516, 9960, 7997, 7650, 13782, 15505, 13357, 15215, 13814, 13611, 13423, 11794, 12132, 12573, 920, 2297, 1732, 3496, 0 |];

% Matrices temps de trajet en minutes (trafic dynamique Waze)
% Créneau 0 = NUIT  (h21-h05) : 40 km/h
% Créneau 1 = MATIN (h06-h09) : 20 km/h heure de pointe
% Créneau 2 = MIDI  (h10-h14) : 25 km/h
% Créneau 3 = SOIR  (h15-h20) : 18 km/h heure de pointe sévère
temps_trajet_c0 = 
[|
  0, 11, 13, 11, 16, 36, 35, 37, 39, 38, 35, 44, 41, 37, 39, 29, 29, 29, 27, 28, 28, 27, 26, 27, 27, 29, 29, 30, 30, 28, 35, 36, 35, 31, 35, 36, 39, 38, 36, 41, 24, 23, 26, 22, 24, 34, 34, 30, 32, 31, 20, 23, 21, 26, 17, 29, 29, 28, 27, 30, 26, 28, 27, 28, 26, 41, 39, 40, 38, 36, 30, 30, 28, 31, 29, 20, 22, 21, 23, 24, 30, 32, 31, 30, 29, 20, 18, 18, 15, 16, 25, 23, 23, 25, 25, 14, 11, 14, 12, 14, 15, 17, 20, 17, 19, 34, 32, 33, 31, 34 |
  11, 0, 13, 8, 15, 42, 38, 43, 44, 42, 35, 44, 41, 36, 39, 27, 28, 29, 28, 27, 32, 30, 30, 31, 31, 31, 31, 32, 32, 30, 36, 37, 36, 32, 37, 37, 39, 40, 37, 42, 26, 25, 27, 24, 25, 37, 36, 33, 36, 34, 18, 23, 18, 24, 18, 30, 31, 29, 28, 32, 28, 30, 29, 30, 29, 44, 43, 42, 42, 39, 31, 32, 29, 33, 29, 25, 27, 25, 26, 26, 30, 31, 32, 29, 29, 23, 22, 21, 16, 20, 29, 28, 27, 29, 28, 17, 14, 17, 16, 19, 15, 14, 16, 17, 15, 33, 31, 32, 29, 34 |
  12, 11, 0, 4, 8, 33, 29, 34, 35, 34, 26, 36, 33, 28, 31, 19, 20, 20, 20, 18, 23, 21, 21, 22, 22, 23, 22, 24, 24, 22, 27, 28, 27, 24, 28, 28, 31, 31, 28, 34, 17, 16, 18, 15, 16, 29, 28, 24, 27, 25, 10, 14, 10, 16, 9, 21, 22, 21, 20, 23, 19, 21, 20, 21, 20, 35, 34, 34, 33, 30, 22, 23, 21, 24, 21, 16, 18, 16, 17, 17, 22, 23, 23, 21, 20, 14, 13, 12, 7, 11, 20, 20, 19, 20, 19, 8, 6, 8, 8, 10, 6, 6, 9, 8, 8, 25, 23, 24, 21, 26 |
  10, 8, 7, 0, 10, 36, 32, 37, 38, 36, 29, 38, 35, 30, 33, 22, 22, 23, 23, 21, 26, 24, 24, 25, 25, 25, 25, 26, 26, 24, 30, 31, 30, 27, 31, 31, 33, 34, 31, 36, 20, 19, 21, 18, 19, 31, 30, 27, 30, 28, 13, 17, 13, 18, 12, 24, 25, 23, 22, 26, 22, 24, 23, 24, 23, 38, 37, 36, 36, 33, 25, 26, 23, 27, 24, 19, 21, 19, 20, 20, 25, 26, 26, 23, 23, 17, 16, 15, 10, 14, 23, 23, 21, 23, 22, 11, 9, 11, 11, 13, 9, 8, 11, 11, 9, 27, 25, 26, 24, 28 |
  15, 16, 6, 9, 0, 29, 25, 29, 31, 29, 22, 32, 29, 24, 27, 16, 16, 17, 16, 15, 18, 17, 17, 18, 18, 18, 18, 19, 19, 17, 23, 24, 23, 20, 24, 24, 27, 27, 24, 29, 13, 12, 14, 11, 12, 24, 23, 19, 23, 21, 6, 10, 7, 13, 5, 17, 18, 16, 16, 19, 15, 17, 16, 17, 16, 31, 30, 29, 29, 26, 18, 19, 16, 20, 17, 12, 14, 12, 13, 13, 18, 19, 19, 18, 17, 10, 9, 7, 3, 7, 16, 15, 14, 16, 15, 5, 4, 4, 6, 7, 2, 4, 6, 4, 6, 21, 19, 21, 18, 22 |
  36, 42, 33, 36, 29, 0, 13, 3, 5, 8, 17, 18, 16, 18, 18, 22, 20, 18, 16, 21, 12, 13, 12, 12, 11, 13, 14, 12, 13, 14, 15, 16, 12, 15, 11, 13, 15, 13, 15, 15, 18, 19, 19, 20, 20, 7, 10, 11, 8, 9, 25, 22, 27, 23, 24, 15, 14, 15, 16, 14, 15, 14, 15, 14, 14, 9, 7, 10, 8, 9, 16, 14, 16, 14, 17, 18, 16, 18, 16, 17, 17, 18, 16, 21, 19, 20, 20, 22, 26, 23, 13, 14, 15, 14, 15, 25, 28, 26, 27, 24, 28, 30, 29, 26, 30, 20, 21, 20, 22, 18 |
  35, 38, 29, 32, 25, 8, 0, 10, 11, 12, 10, 13, 10, 11, 12, 15, 14, 12, 11, 15, 7, 9, 9, 8, 8, 8, 8, 6, 7, 9, 8, 9, 6, 8, 4, 7, 9, 7, 8, 9, 14, 14, 13, 15, 15, 2, 3, 6, 3, 5, 21, 17, 22, 17, 20, 10, 9, 10, 11, 8, 11, 9, 10, 9, 10, 7, 5, 6, 4, 2, 10, 8, 11, 7, 11, 15, 13, 14, 13, 13, 11, 11, 9, 14, 13, 16, 17, 18, 23, 20, 11, 12, 13, 10, 11, 23, 26, 23, 24, 22, 24, 26, 24, 22, 25, 13, 14, 14, 15, 12 |
  37, 43, 34, 37, 29, 4, 15, 0, 5, 10, 17, 17, 15, 18, 18, 22, 20, 18, 16, 21, 12, 14, 13, 13, 12, 13, 14, 12, 13, 14, 14, 15, 12, 15, 10, 13, 15, 12, 14, 14, 19, 19, 19, 20, 20, 7, 9, 12, 8, 10, 26, 22, 27, 23, 25, 16, 15, 15, 16, 14, 16, 15, 15, 15, 15, 8, 6, 9, 7, 8, 16, 14, 17, 14, 17, 18, 17, 18, 17, 17, 17, 18, 16, 21, 19, 20, 21, 23, 27, 23, 14, 15, 16, 14, 16, 26, 29, 27, 27, 25, 28, 30, 29, 27, 30, 19, 21, 20, 22, 18 |
  39, 44, 35, 38, 31, 5, 16, 4, 0, 9, 18, 18, 16, 19, 18, 23, 22, 20, 18, 22, 14, 15, 15, 14, 14, 15, 16, 14, 15, 16, 15, 16, 13, 16, 11, 14, 15, 13, 15, 14, 20, 21, 21, 22, 22, 8, 11, 13, 10, 11, 28, 24, 29, 25, 27, 17, 16, 17, 18, 15, 17, 16, 17, 16, 16, 8, 6, 10, 7, 9, 17, 16, 18, 15, 19, 20, 18, 20, 19, 19, 19, 19, 17, 22, 21, 22, 23, 24, 29, 25, 16, 17, 18, 16, 17, 28, 31, 28, 29, 27, 30, 32, 31, 29, 32, 20, 22, 21, 23, 19 |
  38, 42, 34, 36, 29, 9, 16, 10, 13, 0, 15, 15, 13, 16, 16, 20, 19, 17, 15, 20, 11, 13, 13, 12, 12, 12, 13, 11, 12, 13, 12, 13, 10, 13, 9, 11, 13, 10, 12, 12, 18, 19, 18, 20, 20, 6, 8, 11, 7, 9, 25, 21, 26, 22, 25, 15, 13, 14, 15, 13, 15, 14, 15, 14, 14, 6, 4, 7, 5, 6, 15, 13, 16, 12, 16, 19, 17, 18, 17, 17, 16, 16, 14, 19, 18, 20, 21, 22, 27, 23, 14, 15, 16, 14, 15, 26, 29, 26, 28, 25, 28, 30, 29, 27, 30, 18, 19, 19, 20, 16 |
  35, 35, 26, 29, 22, 17, 10, 17, 18, 15, 0, 13, 10, 4, 7, 8, 7, 6, 8, 9, 10, 10, 12, 11, 12, 8, 7, 8, 7, 8, 3, 3, 5, 4, 7, 4, 5, 6, 3, 8, 11, 12, 9, 13, 11, 11, 8, 9, 10, 10, 17, 13, 17, 11, 18, 7, 7, 8, 9, 7, 10, 9, 9, 8, 10, 13, 13, 10, 11, 9, 6, 6, 7, 6, 6, 16, 15, 15, 14, 12, 5, 4, 5, 6, 7, 15, 18, 17, 20, 19, 13, 16, 15, 12, 12, 22, 24, 21, 24, 21, 22, 21, 19, 19, 20, 3, 5, 5, 7, 2 |
  44, 44, 36, 38, 32, 18, 13, 17, 18, 15, 13, 0, 6, 8, 5, 17, 16, 16, 17, 18, 17, 17, 19, 18, 19, 16, 15, 15, 14, 16, 9, 8, 10, 13, 11, 9, 6, 7, 8, 4, 20, 21, 18, 22, 20, 14, 12, 15, 14, 16, 26, 22, 26, 20, 27, 16, 15, 17, 18, 15, 19, 17, 18, 16, 18, 10, 12, 9, 11, 11, 15, 14, 16, 13, 15, 24, 23, 23, 22, 21, 14, 13, 13, 15, 16, 24, 26, 26, 30, 28, 21, 23, 23, 20, 20, 31, 33, 30, 33, 30, 31, 31, 28, 29, 29, 11, 14, 13, 16, 11 |
  41, 41, 33, 35, 29, 16, 10, 15, 16, 13, 11, 6, 0, 8, 7, 15, 14, 13, 14, 15, 14, 14, 16, 15, 16, 13, 12, 12, 11, 13, 6, 5, 7, 10, 8, 6, 3, 4, 5, 2, 17, 18, 15, 19, 18, 12, 9, 13, 12, 13, 23, 19, 23, 18, 25, 13, 12, 14, 15, 12, 16, 14, 15, 13, 15, 9, 10, 7, 9, 9, 12, 11, 13, 10, 12, 22, 20, 20, 19, 18, 11, 10, 11, 13, 13, 21, 24, 23, 27, 25, 18, 20, 20, 17, 17, 28, 30, 27, 30, 27, 28, 28, 26, 26, 27, 9, 12, 10, 13, 8 |
  37, 36, 28, 30, 24, 18, 11, 18, 19, 16, 4, 9, 8, 0, 3, 9, 8, 8, 10, 10, 12, 12, 14, 13, 14, 10, 9, 10, 9, 10, 4, 3, 6, 6, 8, 5, 5, 7, 4, 8, 13, 14, 11, 15, 13, 12, 9, 11, 11, 12, 18, 15, 18, 12, 20, 9, 9, 10, 11, 9, 12, 11, 11, 10, 12, 13, 13, 11, 12, 10, 8, 8, 9, 8, 8, 18, 17, 17, 16, 14, 7, 5, 7, 7, 8, 17, 20, 19, 22, 21, 15, 18, 17, 14, 14, 23, 26, 23, 25, 23, 23, 23, 20, 21, 22, 4, 6, 5, 8, 3 |
  39, 39, 31, 33, 27, 18, 12, 18, 18, 16, 8, 7, 6, 3, 0, 12, 11, 11, 13, 13, 14, 14, 16, 15, 15, 12, 11, 11, 11, 12, 5, 4, 7, 9, 9, 6, 3, 6, 5, 6, 15, 17, 13, 17, 15, 13, 10, 12, 12, 13, 21, 17, 21, 15, 23, 11, 11, 12, 13, 11, 15, 13, 14, 12, 14, 12, 13, 10, 12, 10, 10, 10, 12, 10, 11, 20, 19, 19, 18, 17, 9, 8, 9, 10, 11, 19, 22, 21, 25, 24, 17, 20, 19, 16, 16, 26, 29, 25, 28, 26, 26, 26, 23, 24, 24, 6, 9, 7, 10, 5 |
  29, 27, 19, 22, 16, 22, 15, 22, 23, 20, 8, 17, 15, 9, 12, 0, 6, 12, 21, 8, 11, 10, 12, 11, 12, 10, 8, 10, 9, 9, 10, 10, 11, 7, 13, 11, 13, 14, 11, 16, 7, 8, 5, 8, 6, 15, 13, 11, 14, 13, 10, 7, 10, 4, 12, 7, 8, 8, 7, 8, 9, 9, 8, 8, 9, 20, 19, 17, 18, 15, 6, 8, 6, 8, 5, 13, 13, 12, 11, 10, 5, 5, 6, 2, 3, 11, 14, 12, 14, 14, 12, 15, 13, 11, 10, 16, 18, 15, 18, 16, 15, 14, 12, 13, 13, 6, 4, 5, 3, 7 |
  29, 28, 20, 22, 16, 20, 14, 20, 22, 19, 7, 16, 14, 8, 11, 6, 0, 8, 16, 4, 10, 9, 11, 10, 11, 8, 7, 9, 8, 7, 9, 9, 10, 6, 11, 10, 12, 13, 10, 15, 6, 8, 4, 8, 6, 14, 11, 9, 12, 12, 10, 7, 10, 5, 12, 5, 7, 6, 6, 7, 8, 7, 7, 7, 8, 18, 18, 16, 16, 13, 5, 6, 5, 7, 4, 13, 12, 11, 11, 9, 3, 4, 5, 2, 1, 10, 13, 12, 14, 14, 11, 14, 13, 10, 9, 16, 18, 15, 18, 16, 15, 15, 13, 13, 14, 6, 4, 5, 3, 6 |
  29, 29, 20, 23, 17, 18, 12, 18, 20, 17, 6, 16, 13, 8, 11, 11, 7, 0, 10, 5, 8, 7, 9, 8, 9, 6, 5, 7, 6, 5, 7, 8, 8, 4, 9, 8, 11, 11, 9, 14, 5, 7, 3, 7, 5, 12, 10, 7, 10, 10, 11, 7, 11, 6, 12, 3, 4, 4, 4, 5, 6, 5, 5, 5, 6, 17, 16, 15, 15, 12, 3, 4, 2, 5, 1, 11, 11, 10, 9, 7, 2, 3, 3, 4, 2, 9, 12, 11, 14, 14, 10, 12, 11, 8, 7, 16, 18, 15, 18, 16, 16, 16, 13, 13, 15, 6, 5, 6, 5, 6 |
  27, 28, 20, 23, 16, 16, 11, 16, 18, 15, 8, 17, 14, 10, 13, 21, 16, 9, 0, 14, 5, 4, 6, 5, 6, 4, 3, 5, 4, 3, 9, 10, 8, 5, 9, 9, 12, 12, 10, 15, 3, 5, 3, 5, 5, 10, 9, 5, 9, 7, 11, 7, 11, 7, 11, 2, 3, 2, 1, 4, 3, 2, 2, 2, 3, 16, 15, 14, 14, 11, 3, 4, 2, 5, 3, 8, 7, 7, 6, 4, 5, 6, 4, 7, 5, 7, 10, 9, 13, 11, 6, 9, 8, 5, 4, 14, 17, 14, 16, 14, 14, 15, 14, 12, 15, 9, 8, 9, 8, 9 |
  28, 27, 18, 21, 15, 21, 15, 21, 22, 20, 9, 18, 15, 10, 13, 8, 4, 6, 14, 0, 10, 9, 11, 10, 11, 9, 7, 9, 8, 7, 10, 11, 11, 7, 12, 11, 13, 14, 11, 16, 5, 7, 3, 6, 4, 15, 12, 10, 13, 12, 9, 5, 9, 3, 11, 6, 7, 7, 6, 7, 7, 7, 7, 7, 8, 20, 19, 17, 17, 14, 6, 7, 5, 8, 4, 12, 11, 10, 10, 8, 5, 5, 6, 3, 3, 9, 12, 10, 13, 13, 11, 13, 12, 10, 9, 15, 17, 14, 17, 15, 14, 13, 11, 12, 12, 7, 5, 6, 4, 8 |
  28, 32, 23, 26, 18, 12, 7, 12, 14, 11, 10, 17, 14, 12, 14, 11, 10, 8, 5, 10, 0, 5, 6, 2, 4, 2, 4, 3, 4, 3, 9, 10, 7, 6, 7, 9, 12, 11, 10, 14, 7, 8, 8, 9, 9, 6, 6, 2, 5, 3, 15, 11, 16, 12, 14, 5, 4, 4, 5, 4, 4, 3, 4, 4, 3, 13, 12, 12, 11, 8, 6, 5, 6, 5, 7, 8, 7, 8, 6, 6, 8, 9, 7, 11, 9, 9, 11, 12, 16, 13, 4, 7, 6, 3, 4, 16, 19, 16, 17, 15, 17, 19, 18, 16, 19, 12, 12, 12, 12, 11 |
  27, 30, 21, 24, 17, 13, 9, 14, 15, 13, 10, 17, 14, 12, 14, 10, 9, 7, 4, 9, 4, 0, 6, 4, 7, 2, 3, 3, 4, 2, 9, 10, 8, 6, 8, 9, 12, 11, 10, 14, 6, 6, 6, 7, 7, 8, 7, 3, 6, 5, 13, 9, 14, 10, 12, 4, 3, 3, 3, 4, 3, 2, 2, 3, 2, 15, 13, 13, 12, 9, 5, 4, 5, 5, 6, 8, 6, 7, 5, 4, 7, 8, 6, 10, 8, 8, 10, 10, 15, 12, 4, 7, 6, 3, 3, 15, 18, 15, 16, 14, 16, 17, 16, 14, 17, 11, 11, 11, 11, 10 |
  26, 30, 21, 24, 17, 12, 9, 13, 15, 13, 12, 19, 16, 14, 16, 12, 11, 9, 6, 11, 6, 5, 0, 4, 4, 4, 6, 5, 6, 5, 11, 12, 10, 8, 9, 11, 14, 13, 12, 16, 7, 7, 8, 8, 9, 8, 8, 4, 7, 5, 14, 10, 15, 12, 12, 6, 6, 5, 5, 6, 4, 4, 4, 5, 3, 15, 14, 14, 13, 10, 7, 7, 7, 7, 8, 6, 5, 6, 5, 5, 9, 10, 8, 12, 10, 8, 9, 10, 14, 11, 2, 4, 4, 2, 3, 14, 17, 14, 15, 13, 16, 18, 17, 14, 18, 13, 13, 14, 13, 13 |
  27, 31, 22, 25, 18, 12, 8, 13, 14, 12, 11, 18, 15, 13, 15, 11, 10, 8, 5, 10, 2, 4, 3, 0, 3, 3, 4, 4, 5, 4, 10, 11, 8, 7, 8, 10, 13, 12, 11, 15, 7, 7, 8, 8, 8, 7, 7, 3, 6, 4, 14, 10, 15, 12, 13, 5, 5, 4, 5, 5, 4, 3, 4, 4, 3, 14, 13, 13, 12, 9, 6, 5, 6, 6, 7, 7, 6, 7, 5, 5, 8, 9, 7, 11, 10, 8, 10, 11, 15, 12, 3, 6, 5, 2, 3, 15, 18, 15, 16, 14, 16, 18, 17, 15, 18, 12, 12, 13, 13, 11 |
  27, 31, 22, 25, 18, 11, 8, 12, 14, 12, 12, 19, 16, 14, 15, 12, 11, 9, 6, 11, 4, 7, 4, 4, 0, 4, 5, 5, 5, 5, 11, 12, 9, 8, 8, 10, 14, 12, 11, 15, 8, 8, 9, 9, 9, 7, 7, 4, 6, 4, 15, 11, 16, 13, 13, 6, 6, 5, 6, 6, 5, 4, 5, 5, 4, 14, 13, 13, 12, 9, 7, 6, 7, 7, 8, 7, 6, 7, 6, 6, 9, 10, 8, 12, 11, 9, 10, 11, 16, 12, 3, 5, 5, 3, 4, 15, 18, 15, 17, 14, 17, 19, 18, 15, 19, 13, 13, 14, 14, 12 |
  29, 31, 23, 25, 18, 13, 8, 13, 15, 12, 8, 16, 13, 10, 12, 10, 8, 6, 4, 9, 2, 2, 4, 3, 4, 0, 5, 3, 5, 7, 7, 9, 6, 5, 6, 8, 11, 10, 8, 13, 6, 7, 7, 8, 8, 7, 6, 2, 5, 4, 14, 10, 15, 11, 14, 3, 2, 3, 4, 2, 4, 2, 3, 2, 3, 13, 12, 12, 11, 8, 4, 3, 4, 3, 5, 9, 8, 8, 7, 6, 6, 7, 5, 9, 8, 9, 11, 12, 16, 13, 5, 8, 7, 4, 5, 16, 19, 16, 18, 15, 17, 18, 17, 15, 18, 10, 10, 10, 11, 9 |
  29, 31, 22, 25, 18, 14, 8, 14, 16, 13, 7, 15, 12, 9, 11, 8, 7, 5, 3, 7, 4, 3, 6, 4, 5, 4, 0, 5, 5, 9, 6, 8, 6, 3, 6, 7, 10, 9, 7, 12, 6, 7, 6, 8, 7, 8, 6, 3, 6, 5, 13, 9, 14, 10, 14, 2, 1, 2, 3, 1, 4, 2, 3, 2, 4, 14, 12, 12, 11, 8, 3, 2, 3, 2, 4, 10, 9, 9, 8, 6, 5, 6, 3, 8, 6, 9, 12, 12, 16, 14, 7, 9, 9, 5, 5, 16, 19, 16, 18, 16, 17, 18, 16, 15, 17, 8, 8, 9, 9, 8 |
  30, 32, 24, 26, 19, 12, 6, 12, 14, 11, 8, 15, 12, 10, 11, 10, 9, 7, 5, 9, 3, 3, 5, 4, 5, 3, 6, 0, 4, 8, 7, 8, 5, 4, 5, 6, 10, 9, 7, 12, 8, 8, 7, 9, 9, 6, 4, 1, 4, 4, 15, 11, 16, 11, 15, 4, 3, 4, 5, 2, 5, 3, 4, 3, 4, 12, 11, 11, 10, 7, 4, 3, 5, 3, 6, 10, 9, 9, 8, 7, 6, 7, 5, 9, 8, 10, 12, 13, 17, 15, 6, 9, 9, 5, 6, 17, 20, 17, 19, 17, 18, 20, 18, 16, 19, 9, 10, 10, 11, 9 |
  30, 32, 24, 26, 19, 13, 7, 13, 15, 12, 7, 14, 11, 9, 11, 9, 8, 6, 4, 8, 4, 4, 6, 5, 5, 6, 5, 5, 0, 8, 6, 7, 5, 3, 5, 6, 9, 8, 7, 11, 7, 8, 7, 9, 8, 7, 5, 2, 5, 5, 15, 10, 15, 11, 15, 3, 2, 3, 4, 1, 5, 3, 4, 3, 4, 13, 11, 11, 10, 7, 3, 2, 4, 2, 5, 11, 9, 10, 8, 7, 5, 6, 4, 8, 7, 10, 13, 13, 17, 15, 7, 10, 9, 6, 6, 17, 20, 17, 19, 17, 18, 19, 17, 16, 19, 8, 9, 9, 10, 7 |
  28, 30, 22, 24, 17, 14, 9, 14, 16, 13, 8, 16, 13, 10, 12, 9, 7, 5, 3, 7, 3, 2, 5, 4, 5, 5, 5, 4, 3, 0, 8, 9, 7, 4, 7, 8, 11, 10, 9, 13, 5, 6, 5, 7, 7, 8, 7, 3, 6, 5, 13, 9, 14, 9, 13, 2, 1, 2, 2, 2, 3, 1, 2, 1, 3, 14, 13, 13, 12, 9, 3, 3, 3, 3, 4, 9, 8, 8, 7, 5, 5, 6, 4, 8, 7, 8, 11, 11, 15, 13, 6, 8, 8, 4, 4, 15, 18, 15, 17, 15, 16, 17, 16, 14, 17, 9, 9, 9, 10, 9 |
  35, 36, 27, 30, 23, 15, 8, 14, 15, 12, 3, 9, 6, 4, 5, 10, 9, 7, 9, 10, 9, 9, 11, 10, 11, 7, 6, 7, 6, 8, 0, 4, 3, 8, 7, 2, 4, 4, 2, 7, 11, 13, 10, 13, 12, 9, 6, 7, 8, 8, 18, 14, 18, 13, 19, 7, 7, 8, 9, 6, 10, 8, 9, 7, 10, 11, 10, 8, 9, 7, 6, 5, 7, 5, 7, 16, 15, 15, 14, 12, 6, 5, 5, 8, 8, 15, 18, 17, 21, 20, 12, 15, 14, 11, 11, 22, 25, 22, 24, 22, 22, 23, 20, 20, 22, 6, 7, 7, 9, 4 |
  36, 37, 28, 31, 24, 16, 9, 15, 16, 13, 3, 8, 5, 3, 4, 10, 9, 8, 10, 11, 10, 10, 12, 11, 12, 9, 8, 8, 7, 9, 7, 0, 8, 12, 11, 3, 3, 4, 1, 6, 12, 14, 11, 14, 13, 10, 7, 9, 9, 10, 19, 15, 19, 13, 20, 8, 8, 9, 10, 7, 11, 10, 10, 9, 11, 11, 11, 8, 9, 8, 7, 7, 9, 6, 8, 17, 16, 16, 15, 13, 7, 6, 6, 9, 9, 16, 19, 18, 22, 21, 14, 16, 16, 13, 13, 23, 26, 23, 25, 23, 23, 23, 21, 21, 22, 5, 7, 7, 9, 4 |
  35, 36, 27, 30, 23, 12, 6, 12, 13, 10, 5, 10, 7, 6, 7, 11, 10, 8, 8, 11, 7, 8, 10, 8, 9, 6, 6, 5, 5, 7, 5, 10, 0, 9, 9, 2, 5, 4, 3, 7, 11, 12, 10, 13, 12, 6, 4, 6, 6, 7, 18, 14, 19, 13, 19, 7, 6, 7, 8, 5, 9, 7, 8, 7, 9, 9, 9, 7, 7, 5, 6, 5, 7, 4, 7, 15, 13, 14, 13, 11, 7, 6, 5, 10, 9, 15, 17, 17, 21, 19, 11, 14, 13, 10, 10, 22, 24, 21, 23, 21, 22, 23, 21, 20, 22, 8, 9, 9, 11, 6 |
  31, 32, 24, 27, 20, 15, 8, 15, 16, 13, 4, 13, 10, 6, 9, 7, 6, 4, 5, 7, 6, 6, 8, 7, 8, 5, 3, 4, 3, 4, 8, 12, 9, 0, 10, 5, 8, 8, 5, 10, 8, 9, 6, 10, 8, 9, 6, 5, 7, 7, 14, 10, 15, 10, 15, 3, 3, 4, 5, 3, 7, 5, 6, 4, 6, 13, 12, 11, 11, 8, 2, 2, 4, 2, 4, 12, 11, 11, 10, 9, 3, 3, 1, 6, 5, 12, 14, 14, 17, 16, 9, 12, 11, 8, 8, 18, 21, 18, 20, 18, 19, 19, 17, 17, 18, 6, 6, 6, 8, 5 |
  35, 37, 28, 31, 24, 11, 4, 10, 11, 9, 7, 11, 8, 8, 9, 13, 11, 9, 9, 12, 7, 8, 9, 8, 8, 6, 6, 5, 5, 7, 7, 12, 7, 13, 0, 3, 6, 4, 5, 7, 12, 13, 11, 14, 13, 5, 2, 5, 4, 5, 19, 15, 20, 15, 19, 8, 7, 8, 9, 6, 10, 8, 9, 7, 9, 8, 7, 6, 6, 3, 7, 6, 8, 5, 9, 15, 13, 14, 13, 12, 8, 8, 7, 11, 10, 15, 17, 17, 22, 19, 11, 13, 13, 10, 10, 22, 25, 22, 24, 21, 23, 24, 22, 21, 23, 10, 11, 11, 12, 8 |
  36, 37, 28, 31, 24, 13, 7, 13, 14, 11, 4, 9, 6, 5, 6, 11, 10, 8, 9, 11, 9, 9, 11, 10, 10, 8, 7, 6, 6, 8, 2, 3, 2, 5, 3, 0, 7, 9, 4, 13, 12, 13, 11, 14, 13, 7, 5, 7, 7, 8, 19, 15, 19, 14, 20, 8, 7, 8, 9, 6, 10, 9, 9, 8, 10, 9, 9, 7, 8, 5, 7, 6, 8, 5, 8, 16, 15, 15, 14, 13, 7, 6, 6, 10, 9, 16, 18, 18, 22, 20, 12, 15, 14, 11, 12, 22, 25, 22, 24, 22, 23, 24, 21, 21, 23, 7, 9, 8, 10, 6 |
  39, 39, 31, 33, 27, 15, 9, 15, 15, 13, 5, 6, 3, 5, 3, 13, 12, 11, 12, 13, 12, 12, 14, 13, 14, 11, 10, 10, 9, 11, 4, 3, 5, 8, 6, 8, 0, 5, 6, 6, 15, 16, 13, 17, 15, 10, 8, 10, 10, 11, 21, 17, 21, 16, 22, 10, 10, 11, 12, 9, 14, 12, 12, 11, 13, 9, 10, 7, 9, 7, 9, 9, 11, 8, 10, 19, 18, 18, 17, 16, 9, 8, 8, 11, 11, 19, 21, 21, 25, 23, 16, 18, 18, 15, 15, 25, 28, 25, 27, 25, 26, 26, 24, 24, 25, 8, 10, 9, 12, 6 |
  38, 40, 31, 34, 27, 13, 7, 12, 13, 10, 6, 7, 4, 7, 6, 14, 13, 11, 12, 14, 11, 11, 13, 12, 12, 10, 9, 9, 8, 10, 4, 4, 4, 8, 4, 7, 8, 0, 7, 6, 15, 16, 13, 17, 16, 8, 6, 9, 8, 9, 22, 17, 22, 16, 22, 10, 10, 11, 12, 9, 13, 11, 12, 10, 12, 7, 7, 4, 6, 5, 9, 9, 11, 8, 11, 18, 17, 17, 16, 15, 10, 9, 8, 12, 12, 18, 21, 21, 24, 23, 14, 17, 17, 14, 14, 25, 28, 25, 27, 25, 26, 26, 24, 24, 25, 9, 11, 10, 13, 8 |
  36, 37, 28, 31, 24, 15, 8, 14, 15, 12, 3, 8, 5, 4, 5, 11, 10, 9, 10, 11, 10, 10, 12, 11, 11, 8, 7, 7, 7, 9, 2, 1, 3, 5, 5, 6, 6, 9, 0, 12, 12, 14, 11, 14, 13, 9, 6, 8, 8, 9, 19, 15, 19, 14, 20, 8, 8, 9, 10, 7, 11, 9, 10, 9, 11, 10, 10, 7, 9, 7, 7, 7, 9, 6, 8, 17, 15, 16, 15, 13, 7, 6, 6, 9, 9, 16, 19, 18, 22, 21, 13, 16, 15, 12, 12, 23, 26, 23, 25, 23, 23, 24, 21, 21, 23, 6, 8, 7, 10, 5 |
  41, 42, 34, 36, 29, 15, 9, 14, 14, 12, 8, 4, 2, 8, 6, 16, 15, 14, 15, 16, 14, 14, 16, 15, 15, 13, 12, 12, 11, 13, 7, 6, 7, 10, 7, 11, 7, 7, 11, 0, 17, 19, 16, 19, 18, 10, 9, 12, 11, 12, 24, 20, 24, 19, 25, 13, 13, 14, 15, 12, 16, 14, 15, 13, 15, 7, 8, 5, 7, 7, 12, 11, 14, 11, 13, 21, 20, 20, 19, 18, 12, 11, 11, 14, 14, 21, 23, 23, 27, 25, 17, 20, 20, 16, 17, 28, 31, 28, 30, 27, 28, 29, 27, 26, 28, 11, 13, 12, 15, 9 |
  24, 26, 17, 20, 13, 18, 14, 19, 20, 18, 11, 20, 17, 13, 15, 7, 6, 5, 3, 5, 7, 6, 7, 7, 8, 6, 6, 8, 7, 5, 11, 12, 11, 8, 12, 12, 15, 15, 12, 17, 0, 4, 4, 3, 4, 13, 11, 8, 11, 10, 8, 4, 9, 6, 8, 5, 6, 4, 3, 7, 4, 5, 4, 5, 4, 19, 18, 17, 17, 14, 6, 7, 4, 8, 5, 7, 7, 5, 5, 3, 7, 8, 7, 8, 6, 5, 8, 7, 10, 9, 7, 9, 7, 6, 4, 11, 14, 11, 13, 11, 12, 13, 11, 10, 12, 11, 9, 10, 9, 11 |
  23, 25, 16, 19, 12, 19, 14, 19, 21, 19, 12, 21, 18, 14, 17, 8, 8, 7, 5, 7, 8, 6, 7, 7, 8, 7, 7, 8, 8, 6, 13, 14, 12, 9, 13, 13, 16, 16, 14, 19, 3, 0, 7, 3, 7, 13, 12, 8, 12, 10, 7, 4, 9, 7, 7, 6, 7, 5, 4, 8, 4, 6, 5, 6, 5, 20, 19, 18, 17, 15, 7, 8, 6, 9, 7, 6, 6, 4, 4, 3, 8, 9, 8, 9, 7, 3, 6, 5, 9, 8, 6, 8, 6, 6, 4, 10, 13, 9, 12, 10, 11, 12, 11, 9, 12, 12, 11, 12, 10, 12 |
  26, 27, 18, 21, 14, 19, 13, 19, 21, 18, 9, 18, 15, 11, 13, 5, 4, 3, 3, 3, 8, 6, 8, 8, 9, 7, 6, 7, 7, 5, 10, 11, 10, 6, 11, 11, 13, 13, 11, 16, 4, 8, 0, 7, 4, 13, 11, 8, 11, 10, 9, 4, 9, 5, 10, 4, 5, 4, 4, 6, 5, 5, 4, 5, 5, 19, 17, 17, 16, 13, 5, 6, 3, 7, 4, 9, 9, 7, 7, 5, 5, 6, 6, 5, 4, 7, 10, 8, 12, 11, 8, 10, 9, 7, 6, 13, 16, 12, 15, 13, 13, 13, 11, 11, 12, 8, 7, 8, 7, 9 |
  22, 24, 15, 18, 11, 20, 15, 20, 22, 20, 13, 22, 19, 15, 17, 8, 8, 7, 5, 6, 9, 7, 8, 8, 9, 8, 8, 9, 9, 7, 13, 14, 13, 10, 14, 14, 17, 17, 14, 19, 2, 5, 6, 0, 6, 14, 13, 9, 13, 11, 6, 3, 7, 6, 6, 7, 8, 6, 5, 8, 5, 7, 6, 7, 6, 21, 20, 19, 19, 16, 8, 9, 6, 9, 7, 6, 6, 5, 5, 4, 8, 10, 9, 9, 8, 3, 6, 5, 8, 7, 7, 9, 7, 7, 5, 9, 12, 9, 11, 9, 10, 11, 9, 8, 10, 12, 11, 12, 10, 12 |
  24, 25, 16, 19, 12, 20, 15, 20, 22, 20, 11, 20, 18, 13, 15, 6, 6, 5, 5, 4, 9, 7, 9, 8, 9, 8, 7, 9, 8, 7, 12, 13, 12, 8, 13, 13, 15, 16, 13, 18, 4, 8, 4, 7, 0, 14, 13, 9, 13, 11, 7, 2, 7, 4, 8, 6, 7, 6, 5, 8, 5, 6, 5, 6, 6, 20, 19, 18, 18, 15, 7, 8, 5, 9, 6, 8, 8, 6, 7, 5, 7, 8, 8, 7, 6, 5, 9, 7, 10, 9, 8, 10, 9, 8, 6, 11, 14, 10, 13, 11, 11, 11, 10, 9, 11, 10, 9, 10, 8, 11 |
  34, 37, 29, 31, 24, 7, 2, 7, 8, 6, 11, 14, 12, 12, 13, 15, 14, 12, 10, 15, 6, 8, 8, 7, 7, 7, 8, 6, 7, 8, 9, 10, 6, 9, 5, 7, 10, 8, 9, 10, 13, 13, 13, 14, 14, 0, 6, 9, 3, 6, 20, 16, 21, 17, 20, 9, 8, 9, 10, 8, 10, 8, 9, 9, 9, 8, 6, 7, 5, 3, 9, 8, 10, 7, 11, 14, 12, 13, 12, 12, 11, 11, 9, 14, 13, 15, 16, 17, 22, 19, 9, 11, 11, 9, 10, 21, 25, 22, 23, 20, 23, 25, 23, 21, 24, 13, 14, 14, 16, 12 |
  34, 36, 28, 30, 23, 10, 3, 9, 11, 8, 8, 12, 9, 9, 10, 13, 11, 10, 9, 12, 6, 7, 8, 7, 7, 6, 6, 4, 5, 7, 6, 7, 4, 6, 2, 5, 8, 6, 6, 9, 11, 12, 11, 13, 13, 5, 0, 6, 4, 7, 19, 15, 19, 15, 19, 7, 6, 8, 8, 6, 9, 7, 8, 7, 8, 8, 7, 7, 6, 3, 7, 6, 8, 5, 9, 14, 12, 13, 12, 11, 9, 9, 7, 12, 11, 14, 16, 17, 21, 18, 10, 12, 12, 9, 10, 21, 24, 21, 23, 20, 22, 23, 22, 20, 23, 10, 12, 11, 13, 9 |
  30, 33, 24, 27, 19, 11, 6, 12, 13, 11, 9, 15, 13, 11, 12, 11, 9, 7, 5, 10, 2, 3, 4, 3, 4, 2, 3, 1, 2, 3, 7, 9, 6, 5, 5, 7, 10, 9, 8, 12, 8, 8, 8, 9, 9, 10, 8, 0, 10, 7, 15, 11, 16, 12, 15, 5, 3, 4, 5, 3, 5, 3, 4, 4, 4, 12, 11, 11, 10, 7, 5, 4, 5, 4, 6, 10, 8, 9, 8, 7, 7, 8, 6, 10, 9, 10, 12, 13, 17, 14, 6, 8, 8, 5, 6, 17, 20, 17, 19, 16, 18, 20, 18, 16, 19, 10, 11, 11, 12, 9 |
  32, 36, 27, 30, 23, 8, 3, 8, 10, 7, 10, 14, 12, 11, 12, 14, 12, 10, 9, 13, 5, 6, 7, 6, 6, 5, 6, 4, 5, 6, 8, 9, 6, 7, 4, 7, 10, 8, 8, 11, 11, 12, 11, 13, 13, 3, 5, 6, 0, 5, 19, 14, 19, 15, 18, 8, 7, 7, 8, 6, 8, 7, 8, 7, 7, 9, 7, 8, 7, 4, 8, 6, 9, 6, 9, 13, 11, 12, 11, 10, 10, 10, 8, 13, 12, 13, 15, 16, 20, 17, 8, 10, 10, 8, 9, 20, 23, 20, 22, 19, 22, 23, 22, 20, 23, 12, 13, 13, 14, 11 |
  31, 34, 25, 28, 21, 9, 5, 10, 11, 9, 10, 16, 13, 12, 13, 13, 12, 10, 7, 12, 3, 5, 5, 4, 4, 4, 5, 4, 5, 5, 8, 10, 7, 7, 5, 8, 11, 9, 9, 12, 10, 10, 10, 11, 11, 6, 10, 7, 6, 0, 17, 13, 18, 14, 16, 7, 6, 6, 7, 5, 7, 5, 6, 6, 6, 11, 9, 10, 8, 6, 7, 6, 8, 6, 9, 11, 9, 10, 9, 8, 9, 10, 8, 12, 11, 12, 13, 14, 19, 15, 6, 8, 8, 6, 7, 18, 21, 18, 20, 17, 20, 22, 20, 18, 21, 12, 13, 13, 14, 11 |
  20, 18, 10, 13, 6, 25, 21, 26, 28, 25, 17, 26, 23, 18, 21, 10, 10, 11, 11, 9, 15, 13, 14, 14, 15, 14, 13, 15, 15, 13, 18, 19, 18, 14, 19, 19, 21, 22, 19, 24, 8, 7, 9, 6, 7, 20, 19, 15, 19, 17, 0, 7, 3, 9, 7, 12, 13, 12, 11, 14, 11, 12, 11, 12, 12, 27, 25, 25, 24, 21, 13, 14, 11, 15, 12, 10, 11, 9, 10, 9, 13, 14, 14, 12, 11, 7, 9, 6, 5, 8, 13, 14, 12, 12, 11, 8, 9, 7, 10, 9, 6, 5, 4, 4, 5, 15, 13, 15, 12, 16 |
  23, 23, 14, 17, 10, 22, 17, 22, 24, 21, 13, 22, 19, 15, 17, 7, 7, 7, 7, 5, 11, 9, 10, 10, 11, 10, 9, 11, 10, 9, 14, 15, 14, 10, 15, 15, 17, 17, 15, 20, 4, 4, 4, 3, 2, 16, 15, 11, 14, 13, 9, 0, 10, 9, 12, 8, 9, 8, 7, 10, 7, 8, 7, 8, 8, 22, 21, 20, 20, 17, 9, 10, 7, 10, 7, 8, 9, 7, 7, 6, 9, 10, 9, 8, 7, 5, 8, 5, 8, 8, 9, 11, 9, 9, 7, 10, 12, 9, 12, 10, 9, 9, 8, 7, 9, 12, 10, 11, 9, 12 |
  21, 18, 10, 13, 7, 27, 22, 27, 29, 26, 17, 26, 23, 18, 21, 10, 10, 11, 11, 9, 16, 14, 15, 15, 16, 15, 14, 16, 15, 14, 18, 19, 19, 15, 20, 19, 21, 22, 19, 24, 9, 9, 9, 7, 7, 21, 19, 16, 19, 18, 5, 10, 0, 7, 10, 13, 14, 13, 12, 14, 12, 13, 12, 13, 13, 27, 26, 25, 25, 22, 13, 14, 12, 15, 12, 12, 13, 11, 11, 11, 13, 14, 14, 11, 11, 9, 10, 7, 7, 9, 14, 15, 14, 14, 12, 9, 10, 8, 11, 11, 7, 5, 3, 5, 4, 15, 13, 14, 12, 16 |
  26, 24, 16, 18, 13, 23, 17, 23, 25, 22, 11, 20, 18, 12, 15, 4, 5, 6, 7, 3, 12, 10, 12, 12, 13, 11, 10, 11, 11, 9, 13, 13, 13, 10, 15, 14, 16, 16, 14, 19, 6, 7, 5, 6, 4, 17, 15, 12, 15, 14, 11, 9, 7, 0, 15, 8, 9, 8, 8, 10, 9, 9, 8, 9, 9, 22, 21, 20, 20, 17, 8, 9, 7, 10, 7, 11, 12, 10, 10, 9, 7, 8, 9, 6, 5, 9, 12, 9, 11, 12, 12, 14, 12, 11, 10, 13, 15, 12, 15, 14, 12, 11, 9, 10, 10, 9, 7, 9, 6, 10 |
  17, 18, 9, 12, 5, 24, 20, 25, 27, 25, 18, 27, 25, 20, 23, 12, 12, 12, 11, 11, 14, 12, 12, 13, 13, 14, 14, 15, 15, 13, 19, 20, 19, 15, 19, 20, 22, 22, 20, 25, 8, 7, 10, 6, 8, 20, 19, 15, 18, 16, 8, 11, 10, 15, 0, 13, 13, 12, 11, 14, 10, 12, 11, 12, 11, 26, 25, 25, 24, 21, 13, 14, 12, 15, 13, 8, 9, 7, 8, 8, 14, 15, 14, 14, 13, 5, 6, 3, 3, 4, 11, 11, 10, 11, 10, 4, 7, 3, 7, 5, 4, 6, 7, 3, 7, 17, 15, 17, 14, 18 |
  29, 30, 21, 24, 17, 15, 10, 16, 17, 15, 7, 16, 13, 9, 11, 7, 5, 3, 2, 6, 5, 4, 6, 5, 6, 3, 2, 4, 3, 2, 7, 8, 7, 3, 8, 8, 10, 10, 8, 13, 5, 6, 4, 7, 6, 9, 7, 5, 8, 7, 12, 8, 13, 8, 13, 0, 3, 5, 7, 4, 4, 3, 3, 2, 4, 15, 14, 13, 13, 10, 2, 2, 2, 3, 2, 10, 9, 8, 7, 6, 3, 5, 3, 6, 5, 9, 11, 11, 15, 13, 7, 10, 9, 6, 5, 16, 18, 15, 18, 15, 16, 17, 15, 14, 16, 8, 7, 8, 8, 7 |
  29, 31, 22, 25, 18, 14, 9, 15, 16, 13, 7, 15, 12, 9, 11, 8, 7, 4, 3, 7, 4, 3, 6, 5, 6, 2, 1, 3, 2, 1, 7, 8, 6, 3, 7, 7, 10, 10, 8, 13, 6, 7, 5, 8, 7, 8, 6, 3, 7, 6, 13, 9, 14, 9, 13, 2, 0, 5, 6, 2, 4, 2, 3, 1, 3, 14, 13, 12, 12, 9, 2, 2, 3, 3, 4, 10, 8, 8, 7, 6, 4, 5, 3, 7, 6, 9, 12, 11, 15, 13, 7, 9, 8, 5, 5, 16, 19, 16, 18, 15, 17, 18, 16, 15, 17, 8, 8, 9, 9, 8 |
  28, 29, 21, 23, 16, 15, 10, 15, 17, 14, 8, 17, 14, 10, 12, 8, 6, 4, 2, 7, 4, 3, 5, 4, 5, 3, 2, 4, 3, 2, 8, 9, 7, 4, 8, 8, 11, 11, 9, 14, 4, 5, 4, 6, 6, 9, 8, 4, 7, 6, 12, 8, 13, 8, 12, 5, 4, 0, 3, 4, 3, 1, 2, 1, 2, 15, 14, 13, 13, 10, 3, 3, 2, 4, 4, 8, 7, 7, 6, 5, 5, 6, 4, 8, 6, 8, 10, 10, 14, 12, 6, 8, 7, 5, 4, 15, 17, 14, 17, 14, 15, 16, 15, 13, 16, 9, 8, 9, 9, 8 |
  27, 28, 20, 22, 16, 16, 11, 16, 18, 15, 9, 18, 15, 11, 13, 7, 6, 4, 1, 6, 5, 3, 5, 5, 6, 4, 3, 5, 4, 2, 9, 10, 8, 5, 9, 9, 12, 12, 10, 15, 3, 4, 4, 5, 5, 10, 8, 5, 8, 7, 11, 7, 12, 8, 11, 7, 6, 2, 0, 7, 2, 2, 1, 2, 2, 16, 15, 14, 14, 11, 4, 4, 3, 5, 4, 8, 7, 6, 6, 4, 5, 6, 5, 8, 6, 7, 10, 9, 13, 11, 6, 8, 7, 5, 4, 14, 17, 13, 16, 13, 14, 15, 14, 12, 15, 9, 9, 9, 9, 9 |
  30, 32, 23, 26, 19, 14, 8, 14, 15, 13, 7, 15, 12, 9, 11, 8, 7, 5, 4, 7, 4, 4, 6, 5, 6, 2, 1, 2, 1, 2, 6, 7, 5, 3, 6, 6, 9, 9, 7, 12, 7, 8, 6, 8, 8, 8, 6, 3, 6, 5, 14, 10, 14, 10, 14, 4, 1, 5, 6, 0, 5, 3, 4, 2, 4, 13, 12, 11, 11, 8, 2, 1, 3, 2, 4, 10, 9, 9, 8, 7, 4, 5, 3, 8, 6, 10, 12, 12, 16, 14, 7, 10, 9, 6, 6, 17, 20, 16, 19, 16, 18, 18, 17, 16, 18, 8, 8, 8, 9, 7 |
  26, 28, 19, 22, 15, 15, 11, 16, 17, 15, 10, 19, 16, 12, 15, 9, 8, 6, 3, 7, 4, 3, 4, 4, 5, 4, 4, 5, 5, 3, 10, 11, 9, 7, 10, 10, 14, 13, 11, 16, 4, 4, 5, 5, 5, 10, 9, 5, 8, 7, 11, 7, 12, 9, 10, 4, 4, 3, 2, 5, 0, 5, 2, 8, 3, 17, 15, 15, 14, 11, 5, 5, 4, 6, 6, 6, 5, 5, 4, 3, 7, 8, 6, 9, 7, 6, 8, 8, 12, 10, 4, 7, 5, 3, 2, 13, 16, 13, 15, 12, 14, 15, 14, 12, 15, 11, 10, 11, 10, 11 |
  28, 30, 21, 24, 17, 14, 9, 15, 16, 14, 9, 17, 14, 11, 13, 9, 7, 5, 2, 7, 3, 2, 4, 3, 4, 2, 2, 3, 3, 1, 8, 10, 7, 5, 8, 9, 12, 11, 9, 14, 5, 6, 5, 7, 6, 8, 7, 3, 7, 5, 12, 8, 13, 9, 12, 3, 2, 1, 2, 3, 3, 0, 4, 3, 3, 15, 13, 13, 12, 9, 4, 3, 3, 4, 5, 8, 7, 7, 6, 5, 6, 7, 5, 8, 7, 8, 10, 10, 14, 12, 5, 8, 7, 4, 4, 15, 18, 14, 17, 14, 16, 17, 15, 14, 16, 10, 9, 10, 10, 9 |
  27, 29, 20, 23, 16, 15, 10, 15, 17, 15, 9, 18, 15, 11, 14, 8, 7, 5, 2, 7, 4, 2, 4, 4, 5, 3, 3, 4, 4, 2, 9, 10, 8, 6, 9, 9, 12, 12, 10, 15, 4, 5, 4, 6, 5, 9, 8, 4, 8, 6, 11, 7, 12, 8, 11, 3, 3, 2, 1, 4, 3, 5, 0, 7, 3, 16, 15, 14, 13, 10, 4, 4, 3, 5, 5, 7, 6, 6, 5, 4, 6, 7, 5, 8, 7, 7, 9, 9, 13, 11, 5, 7, 6, 4, 3, 14, 17, 13, 16, 13, 15, 16, 14, 13, 15, 10, 9, 10, 10, 10 |
  28, 30, 21, 24, 17, 14, 9, 15, 16, 14, 8, 16, 13, 10, 12, 8, 7, 5, 2, 7, 4, 3, 5, 4, 5, 2, 2, 3, 3, 1, 7, 9, 7, 4, 7, 8, 11, 10, 9, 13, 5, 6, 5, 7, 6, 9, 7, 4, 7, 6, 12, 8, 13, 9, 12, 2, 1, 1, 2, 2, 7, 4, 7, 0, 7, 15, 13, 13, 12, 9, 3, 3, 3, 3, 4, 9, 8, 8, 7, 5, 5, 6, 4, 8, 6, 8, 11, 11, 15, 13, 6, 9, 8, 5, 4, 15, 18, 15, 17, 15, 16, 17, 15, 14, 16, 9, 8, 9, 9, 8 |
  26, 29, 20, 23, 16, 14, 10, 15, 16, 14, 10, 18, 15, 12, 14, 9, 8, 6, 3, 8, 3, 2, 3, 3, 4, 3, 4, 4, 4, 3, 10, 11, 9, 6, 9, 10, 13, 12, 11, 15, 4, 5, 5, 6, 6, 9, 8, 4, 7, 6, 12, 8, 13, 9, 11, 4, 3, 2, 2, 4, 3, 5, 3, 8, 0, 16, 14, 14, 13, 10, 5, 5, 4, 5, 6, 7, 6, 6, 5, 3, 7, 8, 6, 9, 8, 7, 9, 9, 13, 11, 4, 6, 6, 3, 2, 14, 16, 13, 15, 13, 15, 16, 15, 13, 16, 11, 10, 11, 11, 10 |
  41, 44, 35, 38, 31, 9, 7, 8, 8, 6, 13, 10, 9, 13, 12, 20, 18, 17, 16, 20, 13, 15, 15, 14, 14, 13, 14, 12, 13, 14, 11, 11, 9, 13, 8, 9, 9, 7, 10, 7, 19, 20, 19, 21, 20, 8, 8, 12, 9, 11, 27, 22, 27, 22, 26, 15, 14, 15, 16, 13, 17, 15, 16, 15, 16, 0, 5, 8, 8, 12, 15, 13, 16, 12, 16, 21, 20, 21, 19, 19, 16, 15, 14, 18, 18, 22, 24, 24, 29, 26, 17, 19, 19, 16, 17, 29, 32, 29, 30, 28, 30, 31, 29, 28, 31, 16, 18, 17, 19, 14 |
  39, 43, 34, 37, 30, 7, 5, 6, 6, 4, 13, 12, 10, 13, 13, 19, 18, 16, 15, 19, 12, 13, 14, 13, 13, 12, 12, 11, 11, 13, 10, 11, 9, 12, 7, 9, 10, 7, 10, 8, 18, 19, 17, 20, 19, 6, 7, 11, 7, 9, 25, 21, 26, 21, 25, 14, 13, 14, 15, 12, 15, 13, 15, 13, 14, 4, 0, 8, 4, 10, 14, 12, 15, 11, 15, 20, 18, 19, 18, 17, 15, 14, 13, 18, 17, 20, 22, 23, 27, 24, 15, 17, 17, 15, 16, 27, 30, 27, 29, 26, 29, 30, 28, 27, 29, 15, 17, 17, 19, 14 |
  40, 42, 34, 36, 29, 10, 6, 9, 10, 7, 10, 9, 7, 11, 10, 17, 16, 15, 14, 17, 12, 13, 14, 13, 13, 12, 12, 11, 11, 13, 8, 8, 7, 11, 6, 7, 7, 4, 7, 5, 17, 18, 17, 19, 18, 7, 7, 11, 8, 10, 25, 20, 25, 20, 25, 13, 12, 13, 14, 11, 15, 13, 14, 13, 14, 4, 8, 0, 9, 9, 12, 11, 14, 10, 14, 20, 18, 19, 18, 17, 13, 13, 12, 16, 15, 20, 22, 23, 27, 25, 16, 18, 18, 15, 16, 27, 30, 27, 29, 26, 28, 29, 27, 26, 28, 13, 15, 14, 17, 12 |
  38, 42, 33, 36, 29, 8, 4, 7, 7, 5, 11, 11, 9, 12, 12, 18, 16, 15, 14, 17, 11, 12, 13, 12, 12, 11, 11, 10, 10, 12, 9, 9, 7, 11, 6, 8, 9, 6, 9, 7, 17, 17, 16, 19, 18, 5, 6, 10, 7, 8, 24, 20, 25, 20, 24, 13, 12, 13, 14, 11, 14, 12, 13, 12, 13, 8, 4, 8, 0, 8, 12, 11, 14, 10, 14, 19, 17, 18, 17, 16, 13, 13, 12, 16, 16, 19, 21, 22, 26, 23, 14, 16, 16, 14, 15, 26, 29, 26, 28, 25, 27, 29, 27, 26, 28, 14, 16, 15, 17, 13 |
  36, 39, 30, 33, 26, 9, 2, 8, 9, 6, 9, 11, 9, 10, 10, 15, 13, 12, 11, 14, 8, 9, 10, 9, 9, 8, 8, 7, 7, 9, 7, 8, 5, 8, 3, 5, 7, 5, 7, 7, 14, 15, 13, 16, 15, 3, 3, 7, 4, 6, 21, 17, 22, 17, 21, 10, 9, 10, 11, 8, 11, 9, 10, 9, 10, 11, 8, 7, 8, 0, 9, 8, 11, 7, 11, 16, 14, 15, 14, 13, 11, 10, 9, 14, 13, 17, 18, 19, 23, 21, 12, 14, 14, 11, 12, 23, 26, 23, 25, 22, 25, 26, 24, 23, 25, 12, 13, 13, 15, 10 |
  30, 31, 22, 25, 18, 16, 10, 16, 17, 15, 6, 15, 12, 8, 10, 6, 5, 3, 3, 6, 6, 5, 7, 6, 7, 4, 3, 4, 3, 3, 6, 7, 6, 2, 7, 7, 9, 9, 7, 12, 6, 7, 5, 8, 7, 9, 7, 5, 8, 7, 13, 9, 13, 8, 13, 2, 2, 3, 4, 2, 5, 4, 4, 3, 5, 15, 14, 12, 12, 9, 0, 5, 6, 6, 9, 11, 10, 10, 9, 7, 2, 3, 2, 6, 4, 10, 13, 12, 16, 14, 8, 11, 10, 7, 7, 17, 19, 16, 19, 16, 17, 17, 15, 15, 17, 6, 6, 7, 7, 6 |
  30, 32, 23, 26, 19, 14, 8, 14, 16, 13, 6, 14, 11, 8, 10, 8, 6, 4, 4, 7, 5, 4, 7, 5, 6, 3, 2, 3, 2, 3, 5, 7, 5, 2, 6, 6, 9, 9, 7, 11, 7, 8, 6, 9, 8, 8, 6, 4, 6, 6, 14, 10, 14, 9, 14, 2, 2, 3, 4, 1, 5, 3, 4, 3, 5, 13, 12, 11, 11, 8, 4, 0, 8, 3, 10, 11, 10, 10, 9, 7, 4, 5, 2, 7, 6, 10, 13, 12, 16, 15, 8, 10, 10, 7, 6, 17, 20, 17, 19, 17, 18, 19, 17, 16, 18, 7, 7, 8, 8, 6 |
  28, 29, 21, 23, 16, 16, 11, 17, 18, 16, 7, 16, 13, 9, 12, 6, 5, 2, 2, 5, 6, 5, 7, 6, 7, 4, 3, 5, 4, 3, 7, 9, 7, 4, 8, 8, 11, 11, 9, 14, 4, 6, 3, 6, 5, 10, 8, 5, 9, 8, 11, 7, 12, 7, 12, 2, 3, 2, 3, 3, 4, 3, 3, 3, 4, 16, 15, 14, 14, 11, 7, 8, 0, 10, 3, 10, 9, 8, 7, 6, 3, 4, 3, 6, 4, 8, 11, 10, 14, 13, 8, 10, 9, 6, 6, 15, 18, 15, 17, 15, 15, 16, 14, 13, 15, 7, 7, 7, 7, 7 |
  31, 33, 24, 27, 20, 14, 7, 14, 15, 12, 6, 13, 10, 8, 10, 8, 7, 5, 5, 8, 5, 5, 7, 6, 7, 3, 2, 3, 2, 3, 5, 6, 4, 2, 5, 5, 8, 8, 6, 11, 8, 9, 7, 9, 9, 7, 5, 4, 6, 6, 15, 10, 15, 10, 15, 3, 3, 4, 5, 2, 6, 4, 5, 3, 5, 12, 11, 10, 10, 7, 5, 3, 11, 0, 11, 12, 10, 10, 9, 8, 4, 5, 3, 8, 6, 11, 14, 13, 17, 15, 8, 11, 10, 7, 7, 18, 21, 18, 20, 17, 19, 19, 18, 17, 19, 7, 8, 8, 9, 6 |
  29, 29, 21, 24, 17, 17, 11, 17, 19, 16, 6, 15, 12, 8, 11, 5, 4, 1, 3, 4, 7, 6, 8, 7, 8, 5, 4, 6, 5, 4, 7, 8, 7, 4, 9, 8, 10, 11, 8, 13, 5, 7, 4, 7, 6, 11, 9, 6, 9, 9, 12, 7, 12, 7, 13, 2, 4, 4, 4, 4, 6, 5, 5, 4, 6, 16, 15, 14, 14, 11, 6, 9, 4, 10, 0, 11, 10, 10, 9, 7, 2, 3, 3, 4, 3, 10, 12, 11, 15, 14, 9, 11, 10, 8, 7, 16, 19, 15, 18, 16, 16, 16, 14, 14, 15, 6, 5, 6, 6, 6 |
  20, 25, 16, 19, 12, 18, 15, 18, 20, 19, 16, 24, 22, 18, 20, 13, 13, 11, 8, 12, 8, 8, 6, 7, 7, 9, 10, 10, 11, 9, 16, 17, 15, 12, 15, 16, 19, 18, 17, 21, 7, 6, 9, 6, 8, 14, 14, 10, 13, 11, 10, 8, 12, 11, 8, 10, 10, 8, 8, 10, 6, 8, 7, 9, 7, 21, 20, 20, 19, 16, 11, 11, 10, 12, 11, 0, 5, 8, 7, 9, 12, 14, 12, 14, 12, 4, 3, 5, 9, 5, 5, 4, 3, 6, 5, 8, 11, 9, 10, 7, 11, 13, 13, 10, 14, 16, 15, 16, 15, 16 |
  22, 27, 18, 21, 14, 16, 13, 17, 18, 17, 15, 23, 20, 17, 19, 13, 12, 11, 7, 11, 7, 6, 5, 6, 6, 8, 9, 9, 9, 8, 15, 16, 13, 11, 13, 15, 18, 17, 15, 20, 7, 6, 9, 6, 8, 12, 12, 8, 11, 9, 11, 9, 13, 12, 9, 9, 8, 7, 7, 9, 5, 7, 6, 8, 6, 20, 18, 18, 17, 14, 10, 10, 9, 10, 10, 4, 0, 7, 6, 9, 11, 13, 11, 14, 12, 5, 5, 7, 11, 7, 3, 3, 1, 4, 4, 10, 13, 10, 12, 9, 12, 15, 15, 11, 15, 16, 15, 16, 15, 15 |
  21, 25, 16, 19, 12, 18, 14, 18, 20, 18, 15, 23, 20, 17, 19, 12, 11, 10, 7, 10, 8, 7, 6, 7, 7, 8, 9, 9, 10, 8, 15, 16, 14, 11, 14, 15, 18, 17, 16, 20, 5, 4, 7, 5, 6, 13, 13, 9, 12, 10, 9, 7, 11, 10, 7, 8, 8, 7, 6, 9, 5, 7, 6, 8, 6, 21, 19, 19, 18, 15, 10, 10, 8, 10, 10, 6, 8, 0, 2, 5, 11, 12, 11, 12, 11, 2, 4, 5, 9, 6, 5, 5, 4, 5, 4, 9, 12, 9, 10, 8, 10, 13, 12, 9, 13, 15, 14, 15, 14, 15 |
  23, 26, 17, 20, 13, 16, 13, 17, 19, 17, 14, 22, 19, 16, 18, 11, 11, 9, 6, 10, 6, 5, 5, 5, 6, 7, 8, 8, 8, 7, 14, 15, 13, 10, 13, 14, 17, 16, 15, 19, 5, 4, 7, 5, 7, 12, 12, 8, 11, 9, 10, 7, 11, 10, 8, 7, 7, 6, 6, 8, 4, 6, 5, 7, 5, 19, 18, 18, 17, 14, 9, 9, 7, 9, 9, 7, 7, 2, 0, 3, 10, 11, 10, 12, 10, 4, 5, 6, 10, 7, 3, 4, 3, 4, 3, 10, 13, 10, 12, 9, 12, 14, 13, 10, 14, 14, 13, 14, 13, 14 |
  24, 26, 17, 20, 13, 17, 13, 17, 19, 17, 12, 21, 18, 14, 17, 10, 9, 7, 4, 8, 6, 4, 5, 5, 6, 6, 6, 7, 7, 5, 12, 13, 11, 9, 12, 13, 16, 15, 13, 18, 3, 3, 5, 4, 5, 12, 11, 7, 10, 8, 9, 6, 11, 9, 8, 6, 6, 5, 4, 7, 3, 5, 4, 5, 3, 19, 17, 17, 16, 13, 7, 7, 6, 8, 7, 10, 9, 8, 6, 0, 8, 10, 8, 10, 8, 4, 6, 6, 11, 8, 4, 6, 4, 4, 2, 11, 14, 11, 12, 10, 12, 14, 13, 10, 14, 13, 12, 12, 11, 12 |
  30, 30, 22, 25, 18, 17, 11, 17, 19, 16, 5, 14, 11, 7, 9, 5, 3, 2, 5, 5, 8, 7, 9, 8, 9, 6, 5, 6, 5, 5, 6, 7, 7, 3, 8, 7, 9, 10, 7, 12, 7, 8, 5, 8, 7, 11, 9, 7, 10, 9, 13, 9, 13, 7, 14, 3, 4, 5, 5, 4, 7, 6, 6, 5, 7, 16, 15, 13, 13, 11, 2, 4, 3, 4, 2, 12, 11, 11, 10, 8, 0, 5, 4, 9, 5, 11, 14, 13, 16, 15, 10, 13, 12, 9, 8, 17, 20, 17, 19, 17, 17, 17, 15, 15, 16, 5, 4, 5, 5, 5 |
  32, 31, 23, 26, 19, 18, 11, 18, 19, 16, 4, 13, 10, 5, 8, 5, 4, 3, 6, 5, 9, 8, 10, 9, 10, 7, 6, 7, 6, 6, 5, 6, 6, 3, 8, 6, 8, 9, 6, 11, 8, 9, 6, 10, 8, 11, 9, 8, 10, 10, 14, 10, 14, 8, 15, 5, 5, 6, 6, 5, 8, 7, 7, 6, 8, 15, 14, 13, 13, 10, 3, 5, 4, 5, 3, 14, 13, 12, 11, 10, 4, 0, 7, 10, 7, 12, 15, 14, 17, 16, 11, 14, 13, 10, 9, 18, 21, 18, 21, 18, 18, 18, 16, 16, 17, 3, 3, 4, 5, 3 |
  31, 32, 23, 26, 19, 16, 9, 16, 17, 14, 5, 13, 11, 7, 9, 6, 5, 3, 4, 6, 7, 6, 8, 7, 8, 5, 3, 5, 4, 4, 5, 6, 5, 1, 7, 6, 8, 8, 6, 11, 7, 8, 6, 9, 8, 9, 7, 6, 8, 8, 14, 9, 14, 9, 14, 3, 3, 4, 5, 3, 6, 5, 5, 4, 6, 14, 13, 12, 12, 9, 2, 2, 3, 3, 3, 12, 11, 11, 10, 8, 5, 6, 0, 12, 8, 11, 14, 13, 17, 15, 9, 12, 11, 8, 8, 18, 20, 17, 20, 17, 18, 18, 16, 16, 17, 5, 6, 6, 7, 5 |
  30, 29, 21, 23, 18, 21, 14, 21, 22, 19, 6, 15, 13, 7, 10, 2, 2, 4, 7, 3, 11, 10, 12, 11, 12, 9, 8, 9, 8, 8, 8, 9, 10, 6, 11, 10, 11, 12, 9, 14, 8, 9, 5, 9, 7, 14, 12, 10, 13, 12, 12, 8, 11, 6, 14, 6, 7, 8, 8, 8, 9, 8, 8, 8, 9, 18, 18, 16, 16, 14, 6, 7, 6, 8, 4, 14, 14, 12, 12, 10, 8, 12, 12, 0, 5, 12, 15, 13, 16, 16, 13, 15, 14, 12, 10, 17, 20, 17, 20, 18, 17, 16, 13, 14, 15, 4, 2, 4, 2, 5 |
  29, 29, 20, 23, 17, 19, 13, 19, 21, 18, 7, 16, 13, 8, 11, 3, 1, 2, 5, 3, 9, 8, 10, 10, 11, 8, 6, 8, 7, 7, 8, 9, 9, 5, 10, 9, 11, 12, 9, 14, 6, 7, 4, 8, 6, 13, 11, 9, 12, 11, 11, 7, 11, 5, 13, 5, 6, 6, 6, 6, 7, 7, 7, 6, 8, 18, 17, 15, 16, 13, 4, 6, 4, 6, 3, 12, 12, 11, 10, 8, 5, 8, 9, 8, 0, 10, 13, 12, 15, 14, 11, 13, 12, 10, 9, 16, 19, 15, 18, 16, 16, 15, 13, 13, 14, 5, 4, 5, 4, 6 |
  20, 23, 14, 17, 10, 20, 16, 20, 22, 20, 15, 24, 21, 17, 19, 11, 10, 9, 7, 9, 9, 8, 8, 8, 9, 9, 9, 10, 10, 8, 15, 16, 15, 12, 15, 16, 19, 18, 16, 21, 5, 3, 7, 3, 5, 15, 14, 10, 13, 12, 7, 5, 9, 9, 5, 9, 9, 8, 7, 10, 6, 8, 7, 8, 7, 22, 20, 20, 19, 17, 10, 10, 8, 11, 10, 4, 5, 2, 4, 4, 11, 12, 11, 12, 10, 0, 5, 7, 11, 7, 7, 7, 6, 7, 5, 7, 10, 7, 9, 7, 9, 11, 10, 7, 11, 15, 13, 15, 13, 15 |
  18, 22, 13, 16, 9, 20, 17, 21, 23, 21, 18, 26, 24, 20, 22, 14, 13, 12, 10, 12, 11, 10, 9, 10, 10, 11, 12, 12, 13, 11, 18, 19, 17, 14, 17, 18, 21, 21, 19, 23, 8, 6, 10, 6, 9, 16, 16, 12, 15, 13, 9, 8, 10, 12, 6, 11, 12, 10, 10, 12, 8, 10, 9, 11, 9, 24, 22, 22, 21, 18, 13, 13, 11, 14, 12, 3, 5, 4, 5, 6, 14, 15, 14, 15, 13, 6, 0, 10, 14, 6, 7, 7, 6, 8, 7, 6, 9, 6, 7, 5, 8, 11, 12, 8, 12, 18, 16, 18, 16, 18 |
  18, 21, 12, 15, 7, 22, 18, 23, 24, 22, 17, 26, 23, 19, 21, 12, 12, 11, 9, 10, 12, 10, 10, 11, 11, 12, 12, 13, 13, 11, 17, 18, 17, 14, 17, 18, 21, 21, 18, 23, 7, 5, 8, 5, 7, 17, 17, 13, 16, 14, 6, 5, 7, 9, 3, 11, 11, 10, 9, 12, 8, 10, 9, 11, 9, 24, 23, 23, 22, 19, 12, 12, 10, 13, 11, 5, 7, 5, 6, 6, 13, 14, 13, 13, 12, 6, 8, 0, 9, 7, 9, 9, 8, 9, 8, 5, 8, 5, 7, 5, 6, 9, 9, 5, 9, 16, 15, 16, 14, 17 |
  15, 16, 7, 10, 3, 26, 23, 27, 29, 27, 20, 30, 27, 22, 25, 14, 14, 14, 13, 13, 16, 15, 14, 15, 16, 16, 16, 17, 17, 15, 21, 22, 21, 17, 22, 22, 25, 24, 22, 27, 10, 9, 12, 8, 10, 22, 21, 17, 20, 19, 5, 8, 7, 11, 3, 15, 15, 14, 13, 16, 12, 14, 13, 15, 13, 29, 27, 27, 26, 23, 16, 16, 14, 17, 15, 9, 11, 9, 10, 11, 16, 17, 17, 16, 15, 12, 14, 7, 0, 10, 13, 13, 12, 13, 12, 3, 5, 2, 5, 5, 2, 5, 6, 2, 6, 19, 17, 19, 16, 20 |
  16, 20, 11, 14, 7, 23, 20, 23, 25, 23, 19, 28, 25, 21, 24, 14, 14, 14, 11, 13, 13, 12, 11, 12, 12, 13, 14, 15, 15, 13, 20, 21, 19, 16, 19, 20, 23, 23, 21, 25, 9, 8, 11, 7, 9, 19, 18, 14, 17, 15, 8, 8, 9, 12, 4, 13, 13, 12, 11, 14, 10, 12, 11, 13, 11, 26, 24, 25, 23, 21, 14, 15, 13, 15, 14, 5, 7, 6, 7, 8, 15, 16, 15, 16, 14, 8, 6, 6, 10, 0, 10, 9, 8, 10, 9, 3, 6, 4, 5, 3, 6, 10, 10, 6, 10, 19, 17, 19, 17, 19 |
  25, 29, 20, 23, 16, 13, 11, 14, 16, 14, 13, 21, 18, 15, 17, 12, 11, 10, 6, 11, 4, 4, 2, 3, 3, 5, 7, 6, 7, 6, 12, 14, 11, 9, 11, 12, 16, 14, 13, 17, 7, 6, 8, 7, 8, 9, 10, 6, 8, 6, 13, 9, 14, 12, 11, 7, 7, 6, 6, 7, 4, 5, 5, 6, 4, 17, 15, 16, 14, 12, 8, 8, 8, 8, 9, 5, 3, 5, 3, 4, 10, 11, 9, 13, 11, 7, 7, 9, 13, 10, 0, 4, 5, 3, 8, 13, 16, 13, 14, 12, 15, 17, 16, 13, 17, 14, 14, 14, 14, 14 |
  23, 28, 20, 23, 15, 14, 12, 15, 17, 15, 16, 23, 20, 18, 20, 15, 14, 12, 9, 13, 7, 7, 4, 6, 5, 8, 9, 9, 10, 8, 15, 16, 14, 12, 13, 15, 18, 17, 16, 20, 9, 8, 10, 9, 10, 11, 12, 8, 10, 8, 14, 11, 15, 14, 11, 10, 9, 8, 8, 10, 7, 8, 7, 9, 6, 19, 17, 18, 16, 14, 11, 10, 10, 11, 11, 4, 3, 5, 4, 6, 13, 14, 12, 15, 13, 7, 7, 9, 13, 9, 5, 0, 5, 9, 12, 12, 15, 12, 13, 10, 14, 17, 17, 13, 17, 17, 16, 17, 16, 16 |
  23, 27, 19, 21, 14, 15, 13, 16, 18, 16, 15, 23, 20, 17, 19, 13, 13, 11, 8, 12, 6, 6, 4, 5, 5, 7, 9, 9, 9, 8, 14, 16, 13, 11, 13, 14, 18, 17, 15, 20, 7, 6, 9, 7, 9, 11, 12, 8, 10, 8, 12, 9, 14, 12, 10, 9, 8, 7, 7, 9, 5, 7, 6, 8, 6, 19, 17, 18, 16, 14, 10, 10, 9, 10, 10, 3, 1, 4, 3, 4, 12, 13, 11, 14, 12, 6, 6, 8, 12, 8, 6, 6, 0, 7, 10, 11, 14, 11, 12, 10, 13, 16, 15, 12, 16, 16, 15, 16, 15, 15 |
  25, 29, 20, 23, 16, 14, 10, 14, 16, 14, 12, 20, 17, 14, 16, 11, 10, 8, 5, 10, 3, 3, 2, 2, 3, 4, 5, 5, 6, 4, 11, 13, 10, 8, 10, 11, 15, 14, 12, 16, 6, 6, 7, 7, 8, 9, 9, 5, 8, 6, 12, 9, 14, 11, 11, 6, 5, 5, 5, 6, 3, 4, 4, 5, 3, 16, 15, 15, 14, 11, 7, 7, 6, 7, 8, 6, 4, 5, 4, 4, 9, 10, 8, 12, 10, 7, 8, 9, 13, 10, 6, 9, 8, 0, 7, 13, 16, 13, 15, 12, 15, 17, 16, 13, 17, 13, 13, 13, 13, 13 |
  25, 28, 19, 22, 15, 15, 11, 16, 17, 15, 12, 20, 17, 14, 16, 10, 9, 7, 4, 9, 4, 3, 3, 3, 4, 5, 5, 6, 6, 4, 11, 13, 10, 8, 10, 12, 15, 14, 12, 17, 4, 4, 6, 5, 6, 10, 10, 6, 9, 7, 11, 7, 12, 10, 10, 5, 5, 4, 4, 6, 2, 4, 3, 4, 2, 17, 16, 16, 15, 12, 7, 6, 6, 7, 7, 5, 4, 4, 3, 2, 8, 9, 8, 10, 9, 5, 7, 8, 12, 9, 7, 9, 8, 4, 0, 12, 15, 12, 14, 11, 13, 15, 14, 12, 15, 12, 12, 12, 12, 12 |
  14, 17, 8, 11, 5, 25, 23, 26, 28, 26, 22, 31, 28, 23, 26, 16, 16, 16, 14, 15, 16, 15, 14, 15, 15, 16, 16, 17, 17, 15, 22, 23, 22, 18, 22, 22, 25, 25, 23, 28, 11, 10, 13, 9, 11, 21, 21, 17, 20, 18, 8, 10, 9, 13, 4, 16, 16, 15, 14, 17, 13, 15, 14, 15, 14, 29, 27, 27, 26, 23, 17, 17, 15, 18, 16, 8, 10, 9, 10, 11, 17, 18, 18, 17, 16, 7, 6, 5, 3, 3, 13, 12, 11, 13, 12, 0, 6, 5, 6, 6, 4, 8, 9, 5, 9, 21, 19, 20, 18, 21 |
  11, 14, 6, 9, 4, 28, 26, 29, 31, 29, 24, 33, 30, 26, 29, 18, 18, 18, 17, 17, 19, 18, 17, 18, 18, 19, 19, 20, 20, 18, 25, 26, 24, 21, 25, 25, 28, 28, 26, 31, 14, 13, 16, 12, 14, 25, 24, 20, 23, 21, 9, 12, 10, 15, 7, 18, 19, 17, 17, 20, 16, 18, 17, 18, 16, 32, 30, 30, 29, 26, 19, 20, 18, 21, 19, 11, 13, 12, 13, 14, 20, 21, 20, 20, 19, 10, 9, 8, 5, 6, 16, 15, 14, 16, 15, 10, 0, 11, 8, 9, 4, 7, 10, 6, 9, 23, 21, 23, 20, 24 |
  14, 17, 8, 11, 4, 26, 23, 27, 28, 26, 21, 30, 27, 23, 25, 15, 15, 15, 14, 14, 16, 15, 14, 15, 15, 16, 16, 17, 17, 15, 22, 23, 21, 18, 22, 22, 25, 25, 23, 28, 11, 9, 12, 9, 10, 22, 21, 17, 20, 18, 7, 9, 8, 12, 3, 15, 16, 14, 13, 16, 13, 14, 13, 15, 13, 29, 27, 27, 26, 23, 16, 17, 15, 18, 15, 9, 10, 9, 10, 11, 17, 18, 17, 17, 15, 7, 6, 5, 2, 4, 13, 12, 11, 13, 12, 6, 9, 0, 10, 11, 3, 7, 8, 4, 8, 20, 18, 20, 17, 21 |
  12, 16, 8, 11, 6, 27, 24, 27, 29, 28, 24, 33, 30, 25, 28, 18, 18, 18, 16, 17, 17, 16, 15, 16, 17, 18, 18, 19, 19, 17, 24, 25, 23, 20, 24, 24, 27, 27, 25, 30, 13, 12, 15, 11, 13, 23, 23, 19, 22, 20, 10, 12, 11, 15, 7, 18, 18, 17, 16, 19, 15, 17, 16, 17, 15, 30, 29, 29, 28, 25, 19, 19, 17, 20, 18, 10, 12, 10, 12, 12, 19, 21, 20, 20, 18, 9, 7, 7, 5, 5, 14, 13, 12, 15, 14, 6, 5, 10, 0, 6, 5, 9, 11, 7, 11, 23, 21, 23, 20, 23 |
  14, 19, 10, 13, 7, 24, 22, 25, 27, 25, 21, 30, 27, 23, 26, 16, 16, 16, 14, 15, 15, 14, 13, 14, 14, 15, 16, 17, 17, 15, 22, 23, 21, 18, 21, 22, 25, 25, 23, 27, 11, 10, 13, 9, 11, 20, 20, 16, 19, 17, 9, 10, 11, 14, 5, 15, 15, 14, 13, 16, 12, 14, 13, 15, 13, 28, 26, 26, 25, 22, 16, 17, 15, 17, 16, 7, 9, 8, 9, 10, 17, 18, 17, 18, 16, 7, 5, 5, 5, 3, 12, 10, 10, 12, 11, 6, 6, 10, 5, 0, 6, 10, 11, 7, 11, 21, 19, 21, 19, 21 |
  15, 15, 6, 9, 2, 28, 24, 28, 30, 28, 22, 31, 28, 23, 26, 15, 15, 16, 14, 14, 17, 16, 16, 16, 17, 17, 17, 18, 18, 16, 22, 23, 22, 19, 23, 23, 26, 26, 23, 28, 12, 11, 13, 10, 11, 23, 22, 18, 22, 20, 6, 9, 7, 12, 4, 16, 17, 15, 14, 18, 14, 16, 15, 16, 15, 30, 29, 28, 27, 25, 17, 18, 15, 19, 16, 11, 12, 10, 12, 12, 17, 18, 18, 17, 16, 9, 8, 6, 2, 6, 15, 14, 13, 15, 13, 4, 4, 3, 5, 6, 0, 10, 11, 8, 10, 20, 18, 20, 17, 21 |
  17, 14, 6, 8, 4, 30, 26, 30, 32, 30, 21, 31, 28, 23, 26, 14, 15, 16, 15, 13, 19, 17, 18, 18, 19, 18, 18, 20, 19, 17, 23, 23, 23, 19, 24, 24, 26, 26, 24, 29, 13, 12, 13, 11, 11, 25, 23, 20, 23, 22, 5, 9, 5, 11, 6, 17, 18, 16, 15, 18, 15, 17, 16, 17, 16, 31, 30, 29, 29, 26, 17, 19, 16, 19, 16, 13, 15, 13, 14, 14, 17, 18, 18, 16, 15, 11, 11, 9, 5, 10, 17, 17, 16, 17, 15, 8, 7, 7, 9, 10, 8, 0, 5, 10, 4, 20, 18, 19, 16, 21 |
  20, 16, 9, 11, 6, 29, 24, 29, 31, 29, 19, 28, 26, 20, 23, 12, 13, 13, 14, 11, 18, 16, 17, 17, 18, 17, 16, 18, 17, 16, 20, 21, 21, 17, 22, 21, 24, 24, 21, 27, 11, 11, 11, 9, 10, 23, 22, 18, 22, 20, 4, 8, 3, 9, 7, 15, 16, 15, 14, 17, 14, 15, 14, 15, 15, 29, 28, 27, 27, 24, 15, 17, 14, 18, 14, 13, 15, 12, 13, 13, 15, 16, 16, 13, 13, 10, 12, 9, 6, 10, 16, 17, 15, 16, 14, 9, 10, 8, 11, 11, 10, 8, 0, 12, 8, 17, 15, 16, 14, 18 |
  17, 17, 8, 11, 4, 26, 22, 27, 29, 27, 19, 29, 26, 21, 24, 13, 13, 13, 12, 12, 16, 14, 14, 15, 15, 15, 15, 16, 16, 14, 20, 21, 20, 17, 21, 21, 24, 24, 21, 26, 10, 9, 11, 8, 9, 21, 20, 16, 20, 18, 4, 7, 5, 10, 3, 14, 15, 13, 12, 16, 12, 14, 13, 14, 13, 28, 27, 26, 26, 23, 15, 16, 13, 17, 14, 10, 11, 9, 10, 10, 15, 16, 16, 14, 13, 7, 8, 5, 2, 6, 13, 13, 12, 13, 12, 5, 6, 4, 7, 7, 6, 11, 13, 0, 12, 18, 16, 17, 15, 19 |
  19, 15, 8, 9, 6, 30, 25, 30, 32, 30, 20, 29, 27, 22, 24, 13, 14, 15, 15, 12, 19, 17, 18, 18, 19, 18, 17, 19, 19, 17, 22, 22, 22, 18, 23, 23, 25, 25, 23, 28, 12, 12, 12, 10, 11, 24, 23, 19, 23, 21, 5, 9, 4, 10, 7, 16, 17, 16, 15, 18, 15, 16, 15, 16, 16, 31, 29, 28, 28, 25, 17, 18, 15, 19, 15, 14, 15, 13, 14, 14, 16, 17, 17, 15, 14, 11, 12, 9, 6, 10, 17, 17, 16, 17, 15, 9, 9, 8, 11, 11, 9, 7, 1, 11, 0, 19, 16, 18, 15, 19 |
  34, 33, 25, 27, 21, 20, 13, 19, 20, 18, 3, 11, 9, 4, 6, 6, 6, 6, 9, 7, 12, 11, 13, 12, 13, 10, 8, 9, 8, 9, 6, 5, 8, 6, 10, 7, 8, 9, 6, 11, 11, 12, 8, 12, 10, 13, 10, 10, 12, 12, 15, 12, 15, 9, 17, 8, 8, 9, 9, 8, 11, 10, 10, 9, 11, 16, 15, 13, 14, 12, 6, 7, 7, 7, 6, 16, 16, 15, 14, 13, 5, 3, 5, 4, 5, 15, 18, 16, 19, 19, 14, 17, 16, 13, 12, 21, 23, 20, 23, 21, 20, 20, 17, 18, 19, 0, 3, 2, 5, 2 |
  32, 31, 23, 25, 19, 21, 14, 21, 22, 19, 5, 14, 12, 6, 9, 4, 4, 5, 8, 5, 12, 11, 13, 12, 13, 10, 8, 10, 9, 9, 7, 7, 9, 6, 11, 9, 10, 11, 8, 13, 9, 11, 7, 11, 9, 14, 12, 11, 13, 13, 13, 10, 13, 7, 15, 7, 8, 8, 9, 8, 10, 9, 9, 8, 10, 18, 17, 15, 16, 13, 6, 7, 7, 8, 5, 15, 15, 14, 13, 12, 4, 3, 6, 2, 4, 13, 16, 15, 17, 17, 14, 16, 15, 13, 12, 19, 21, 18, 21, 19, 18, 18, 15, 16, 16, 3, 0, 2, 2, 4 |
  33, 32, 24, 26, 21, 20, 14, 20, 21, 19, 5, 13, 10, 5, 7, 5, 5, 6, 9, 6, 12, 11, 14, 13, 14, 10, 9, 10, 9, 9, 7, 7, 9, 6, 11, 8, 9, 10, 7, 12, 10, 12, 8, 12, 10, 14, 11, 11, 13, 13, 15, 11, 14, 9, 17, 8, 9, 9, 9, 8, 11, 10, 10, 9, 11, 17, 17, 14, 15, 13, 7, 8, 7, 8, 6, 16, 16, 15, 14, 12, 5, 4, 6, 4, 5, 15, 18, 16, 19, 19, 14, 17, 16, 13, 12, 20, 23, 20, 23, 21, 20, 19, 16, 17, 18, 2, 2, 0, 3, 3 |
  31, 29, 21, 24, 18, 22, 15, 22, 23, 20, 7, 16, 13, 8, 10, 3, 3, 5, 8, 4, 12, 11, 13, 13, 14, 11, 9, 11, 10, 10, 9, 9, 11, 8, 12, 10, 12, 13, 10, 15, 9, 10, 7, 10, 8, 16, 13, 12, 14, 14, 12, 9, 12, 6, 14, 8, 9, 9, 9, 9, 10, 10, 10, 9, 11, 19, 19, 17, 17, 15, 7, 8, 7, 9, 6, 15, 15, 14, 13, 11, 5, 5, 7, 2, 4, 13, 16, 14, 16, 17, 14, 16, 15, 13, 12, 18, 20, 17, 20, 19, 17, 16, 14, 15, 15, 5, 2, 3, 0, 6 |
  34, 34, 26, 28, 22, 18, 12, 18, 19, 16, 2, 11, 8, 3, 5, 7, 6, 6, 9, 8, 11, 10, 13, 11, 12, 9, 8, 9, 7, 9, 4, 4, 6, 5, 8, 6, 6, 8, 5, 9, 11, 12, 9, 12, 11, 12, 9, 9, 11, 11, 16, 12, 16, 10, 18, 7, 8, 8, 9, 7, 11, 9, 10, 8, 10, 14, 14, 12, 13, 10, 6, 6, 7, 6, 6, 16, 15, 15, 14, 12, 5, 3, 5, 5, 6, 15, 18, 17, 20, 19, 14, 16, 15, 13, 12, 21, 24, 21, 23, 21, 21, 21, 18, 19, 19, 2, 4, 3, 6, 0 |];

temps_trajet_c1 = 
[|
  0, 10, 13, 11, 15, 72, 69, 74, 78, 75, 69, 87, 81, 73, 78, 57, 58, 57, 54, 55, 56, 54, 52, 54, 54, 57, 58, 60, 60, 56, 70, 72, 69, 62, 69, 71, 77, 76, 72, 81, 48, 46, 52, 44, 48, 67, 67, 59, 64, 61, 39, 45, 41, 51, 34, 57, 57, 55, 53, 59, 51, 55, 53, 56, 52, 82, 78, 79, 76, 71, 59, 60, 56, 61, 58, 40, 44, 42, 45, 47, 60, 63, 61, 60, 58, 40, 36, 36, 30, 32, 49, 46, 45, 50, 49, 27, 22, 28, 23, 28, 29, 33, 39, 33, 37, 68, 64, 66, 62, 68 |
  11, 0, 12, 7, 15, 83, 76, 85, 88, 84, 69, 87, 82, 71, 77, 54, 56, 57, 56, 53, 63, 60, 60, 61, 62, 62, 62, 64, 64, 60, 71, 73, 72, 64, 73, 73, 78, 79, 73, 83, 51, 49, 53, 47, 49, 74, 72, 65, 71, 68, 36, 45, 36, 48, 36, 59, 61, 58, 56, 63, 56, 59, 57, 60, 57, 88, 85, 84, 83, 77, 61, 63, 58, 65, 58, 49, 53, 49, 52, 52, 60, 62, 63, 58, 57, 46, 44, 41, 32, 39, 57, 56, 54, 58, 55, 34, 28, 33, 32, 37, 29, 27, 32, 33, 29, 65, 61, 63, 58, 67 |
  12, 10, 0, 4, 8, 66, 58, 67, 70, 67, 52, 71, 65, 55, 61, 38, 40, 40, 39, 36, 45, 42, 42, 43, 44, 45, 44, 47, 47, 43, 54, 56, 54, 47, 56, 56, 61, 61, 56, 67, 33, 31, 36, 29, 31, 57, 55, 47, 54, 50, 20, 28, 20, 32, 18, 42, 43, 41, 39, 45, 38, 41, 39, 42, 40, 70, 67, 67, 65, 59, 44, 45, 41, 47, 42, 31, 35, 31, 34, 34, 44, 46, 46, 42, 40, 28, 26, 23, 14, 22, 40, 39, 37, 40, 37, 16, 12, 15, 16, 20, 11, 11, 17, 15, 15, 50, 45, 48, 42, 51 |
  10, 7, 7, 0, 10, 71, 64, 73, 76, 72, 57, 76, 70, 60, 66, 43, 44, 46, 45, 41, 51, 48, 48, 49, 50, 50, 50, 52, 52, 48, 59, 61, 60, 53, 61, 61, 66, 67, 62, 72, 39, 37, 41, 35, 37, 62, 60, 53, 59, 56, 25, 33, 25, 36, 24, 47, 49, 46, 44, 51, 44, 47, 45, 48, 45, 76, 73, 72, 71, 65, 49, 51, 46, 53, 47, 37, 41, 37, 40, 40, 49, 51, 51, 46, 45, 34, 32, 29, 20, 28, 45, 45, 42, 46, 43, 22, 17, 21, 22, 26, 17, 15, 21, 21, 18, 54, 50, 52, 47, 56 |
  15, 15, 6, 9, 0, 57, 50, 58, 62, 58, 44, 63, 57, 48, 53, 31, 32, 33, 31, 29, 36, 34, 33, 35, 36, 36, 36, 38, 38, 34, 46, 48, 46, 39, 47, 48, 53, 53, 48, 58, 25, 23, 27, 21, 23, 48, 46, 38, 45, 42, 12, 20, 14, 25, 10, 34, 35, 32, 31, 37, 29, 33, 31, 34, 31, 62, 59, 58, 57, 51, 35, 37, 32, 39, 34, 23, 27, 23, 25, 26, 36, 38, 37, 35, 33, 19, 18, 14, 6, 14, 31, 30, 28, 31, 29, 9, 7, 7, 11, 13, 3, 8, 12, 7, 11, 42, 38, 41, 35, 43 |
  72, 83, 66, 71, 57, 0, 16, 3, 5, 7, 33, 36, 32, 36, 36, 43, 40, 36, 32, 41, 23, 26, 24, 24, 22, 25, 27, 24, 25, 27, 29, 31, 24, 29, 21, 26, 30, 25, 29, 29, 36, 37, 37, 39, 39, 13, 19, 22, 16, 18, 50, 43, 53, 45, 48, 30, 28, 29, 31, 27, 30, 28, 30, 28, 28, 17, 14, 20, 15, 17, 31, 28, 32, 27, 34, 35, 31, 35, 32, 33, 34, 35, 31, 41, 38, 39, 40, 43, 52, 45, 26, 28, 30, 27, 30, 50, 56, 51, 53, 48, 55, 59, 57, 52, 59, 39, 41, 40, 43, 36 |
  69, 76, 58, 64, 50, 8, 0, 10, 12, 12, 20, 26, 20, 22, 23, 30, 27, 24, 21, 29, 14, 17, 18, 16, 16, 15, 16, 12, 14, 17, 15, 17, 11, 16, 7, 13, 18, 13, 15, 18, 27, 28, 26, 30, 29, 3, 6, 12, 5, 9, 41, 33, 43, 34, 40, 19, 17, 19, 21, 15, 21, 18, 20, 18, 19, 13, 9, 11, 8, 4, 19, 16, 21, 14, 22, 30, 26, 28, 26, 25, 22, 22, 18, 28, 26, 31, 34, 36, 45, 39, 21, 24, 25, 20, 22, 45, 51, 45, 48, 43, 48, 51, 47, 44, 49, 25, 28, 27, 30, 23 |
  74, 85, 67, 73, 58, 4, 19, 0, 4, 9, 33, 34, 30, 35, 35, 43, 40, 36, 32, 41, 23, 27, 26, 25, 23, 25, 28, 24, 26, 28, 28, 30, 24, 29, 20, 25, 29, 24, 28, 27, 37, 38, 38, 40, 40, 13, 18, 23, 16, 19, 51, 44, 54, 46, 49, 31, 29, 30, 32, 27, 31, 29, 30, 29, 29, 15, 12, 18, 13, 16, 31, 28, 33, 27, 34, 36, 33, 36, 34, 34, 34, 35, 31, 41, 38, 40, 41, 45, 53, 46, 28, 30, 31, 28, 31, 52, 58, 53, 54, 49, 56, 60, 58, 53, 60, 38, 41, 40, 43, 35 |
  78, 88, 70, 76, 62, 5, 19, 4, 0, 9, 35, 35, 31, 37, 36, 46, 43, 39, 35, 44, 27, 30, 29, 28, 27, 29, 31, 27, 29, 31, 30, 32, 26, 32, 22, 27, 30, 25, 30, 28, 40, 41, 41, 43, 43, 16, 21, 26, 19, 22, 55, 47, 57, 49, 53, 34, 32, 33, 35, 30, 34, 32, 34, 32, 32, 15, 12, 19, 14, 18, 34, 31, 36, 30, 37, 40, 36, 40, 37, 37, 37, 37, 34, 44, 41, 43, 45, 48, 57, 50, 31, 33, 35, 31, 34, 55, 61, 56, 58, 53, 60, 64, 61, 57, 63, 40, 43, 42, 46, 38 |
  75, 84, 67, 72, 58, 9, 17, 10, 12, 0, 29, 30, 26, 31, 31, 40, 37, 33, 30, 39, 22, 25, 25, 24, 23, 24, 25, 22, 23, 26, 24, 26, 20, 26, 17, 22, 25, 20, 24, 23, 36, 37, 36, 39, 39, 11, 15, 21, 14, 17, 50, 42, 52, 43, 49, 29, 26, 28, 30, 25, 30, 27, 29, 27, 28, 11, 7, 14, 9, 12, 29, 26, 31, 24, 32, 37, 33, 36, 33, 33, 32, 32, 28, 38, 36, 39, 42, 44, 53, 46, 28, 30, 31, 27, 30, 52, 58, 52, 55, 50, 56, 59, 57, 53, 59, 35, 37, 37, 40, 32 |
  69, 69, 52, 57, 44, 33, 20, 33, 35, 29, 0, 13, 11, 5, 8, 16, 14, 12, 16, 17, 20, 19, 24, 21, 23, 16, 14, 15, 13, 16, 5, 5, 9, 8, 13, 8, 10, 12, 6, 16, 21, 24, 18, 25, 22, 21, 15, 17, 19, 20, 33, 25, 33, 22, 36, 13, 14, 16, 17, 13, 20, 17, 18, 15, 20, 25, 25, 20, 22, 18, 11, 11, 14, 11, 12, 32, 30, 29, 27, 24, 9, 7, 9, 12, 13, 30, 35, 33, 40, 38, 26, 31, 30, 24, 23, 43, 48, 41, 47, 42, 43, 42, 38, 38, 40, 6, 10, 9, 14, 3 |
  87, 87, 71, 76, 63, 36, 26, 34, 35, 30, 13, 0, 6, 8, 5, 34, 32, 31, 34, 35, 34, 34, 38, 36, 37, 31, 30, 29, 28, 32, 18, 15, 20, 25, 21, 17, 11, 14, 16, 8, 39, 42, 36, 43, 40, 28, 24, 30, 28, 31, 52, 44, 52, 40, 54, 31, 30, 33, 35, 29, 37, 33, 35, 32, 36, 20, 23, 17, 22, 22, 29, 28, 32, 26, 30, 48, 46, 46, 44, 41, 28, 25, 26, 30, 31, 47, 52, 51, 59, 56, 41, 46, 45, 39, 39, 61, 66, 60, 65, 60, 61, 61, 56, 57, 58, 22, 27, 25, 31, 21 |
  81, 82, 65, 70, 57, 32, 20, 30, 31, 26, 12, 5, 0, 9, 8, 29, 27, 25, 28, 30, 28, 28, 32, 30, 31, 25, 24, 23, 22, 26, 12, 10, 14, 19, 16, 11, 5, 8, 10, 4, 34, 36, 30, 38, 35, 23, 18, 25, 23, 25, 46, 38, 46, 35, 49, 25, 24, 27, 29, 23, 31, 27, 29, 26, 30, 18, 19, 13, 18, 17, 23, 22, 26, 20, 24, 43, 40, 40, 38, 35, 22, 20, 21, 25, 26, 41, 47, 46, 53, 50, 35, 40, 39, 33, 33, 55, 60, 54, 59, 54, 55, 56, 51, 51, 53, 18, 23, 20, 26, 16 |
  73, 71, 55, 60, 48, 36, 22, 35, 37, 31, 4, 9, 8, 0, 3, 18, 16, 16, 20, 19, 24, 23, 28, 25, 27, 20, 18, 19, 17, 20, 8, 6, 12, 12, 16, 10, 9, 13, 8, 15, 25, 28, 21, 29, 25, 24, 18, 21, 22, 23, 36, 29, 36, 24, 39, 17, 18, 20, 21, 17, 24, 21, 22, 19, 24, 26, 26, 21, 24, 20, 15, 15, 18, 15, 15, 36, 34, 33, 31, 28, 13, 10, 13, 14, 15, 33, 39, 37, 44, 42, 30, 35, 34, 28, 27, 46, 51, 45, 50, 46, 46, 45, 40, 41, 43, 7, 11, 9, 15, 5 |
  78, 77, 61, 66, 53, 36, 23, 35, 36, 31, 8, 6, 6, 3, 0, 23, 22, 21, 25, 25, 27, 27, 31, 29, 30, 24, 22, 22, 21, 24, 10, 7, 14, 17, 17, 11, 6, 11, 9, 11, 30, 33, 26, 34, 30, 25, 20, 24, 24, 26, 42, 34, 41, 30, 45, 22, 22, 24, 26, 21, 29, 25, 27, 24, 28, 24, 25, 19, 23, 20, 20, 20, 23, 19, 21, 40, 38, 38, 36, 33, 18, 16, 17, 20, 21, 38, 44, 42, 49, 47, 34, 39, 38, 32, 31, 51, 57, 50, 56, 51, 51, 51, 46, 47, 48, 12, 17, 14, 20, 10 |
  57, 54, 38, 43, 31, 43, 30, 43, 46, 40, 16, 34, 29, 18, 23, 0, 6, 13, 23, 9, 22, 19, 24, 22, 24, 19, 16, 20, 18, 17, 19, 20, 21, 14, 25, 22, 25, 27, 21, 31, 13, 16, 9, 15, 11, 30, 25, 21, 27, 26, 19, 13, 19, 7, 24, 13, 15, 15, 14, 16, 17, 17, 16, 15, 18, 39, 37, 34, 35, 29, 12, 15, 11, 16, 9, 26, 25, 23, 22, 19, 9, 10, 12, 4, 5, 21, 27, 23, 28, 28, 24, 29, 26, 22, 20, 31, 36, 30, 36, 32, 30, 28, 23, 25, 25, 12, 7, 10, 5, 14 |
  58, 56, 40, 44, 32, 40, 27, 40, 43, 37, 14, 32, 27, 16, 22, 6, 0, 8, 17, 5, 20, 17, 21, 20, 22, 16, 13, 17, 15, 14, 17, 18, 19, 12, 22, 19, 23, 25, 19, 29, 12, 15, 8, 15, 11, 27, 22, 18, 24, 23, 20, 13, 20, 9, 24, 10, 13, 12, 12, 13, 15, 14, 14, 13, 16, 36, 35, 32, 32, 26, 9, 12, 9, 14, 7, 25, 24, 21, 21, 17, 6, 7, 10, 3, 2, 20, 26, 23, 28, 28, 22, 27, 25, 20, 18, 32, 36, 30, 36, 32, 30, 29, 25, 26, 27, 11, 7, 9, 6, 12 |
  57, 57, 40, 46, 33, 36, 24, 36, 39, 33, 12, 31, 25, 16, 21, 11, 7, 0, 10, 6, 15, 13, 17, 16, 18, 12, 9, 13, 11, 10, 14, 16, 16, 8, 18, 16, 21, 22, 17, 27, 10, 13, 6, 13, 10, 23, 19, 14, 20, 19, 21, 13, 22, 11, 24, 6, 8, 8, 8, 9, 11, 10, 10, 9, 12, 33, 31, 29, 29, 23, 5, 8, 4, 10, 2, 22, 21, 19, 18, 14, 4, 6, 6, 7, 3, 18, 24, 22, 28, 27, 19, 23, 21, 16, 14, 31, 36, 30, 35, 31, 31, 31, 26, 26, 29, 11, 9, 11, 9, 12 |
  54, 56, 39, 45, 31, 32, 21, 32, 35, 30, 16, 34, 28, 20, 25, 22, 19, 11, 0, 15, 10, 7, 11, 10, 12, 7, 6, 9, 8, 5, 17, 19, 16, 9, 17, 18, 24, 23, 19, 29, 6, 9, 6, 10, 9, 20, 17, 10, 17, 14, 21, 13, 22, 14, 21, 4, 5, 3, 2, 7, 5, 4, 3, 4, 5, 32, 29, 28, 27, 21, 6, 7, 3, 9, 6, 16, 14, 13, 12, 8, 9, 11, 8, 13, 10, 14, 19, 18, 26, 22, 12, 17, 15, 10, 8, 27, 33, 27, 31, 27, 28, 30, 27, 24, 29, 17, 16, 17, 16, 17 |
  55, 53, 36, 41, 29, 41, 29, 41, 44, 39, 17, 35, 30, 19, 25, 8, 4, 6, 15, 0, 20, 17, 21, 20, 22, 17, 14, 18, 16, 14, 20, 21, 21, 14, 24, 22, 26, 27, 21, 32, 10, 13, 6, 12, 8, 29, 24, 19, 26, 24, 17, 10, 17, 6, 21, 11, 13, 13, 12, 14, 14, 14, 13, 13, 15, 39, 37, 34, 34, 28, 11, 14, 9, 15, 8, 23, 22, 20, 19, 16, 9, 10, 12, 6, 5, 18, 24, 20, 25, 25, 22, 26, 23, 19, 17, 29, 33, 27, 33, 30, 27, 26, 22, 23, 24, 14, 10, 12, 8, 15 |
  56, 63, 45, 51, 36, 23, 14, 23, 27, 22, 20, 34, 28, 24, 27, 22, 20, 15, 10, 20, 0, 5, 6, 3, 5, 4, 7, 5, 7, 6, 17, 20, 14, 12, 13, 17, 23, 21, 19, 27, 14, 15, 15, 17, 17, 12, 11, 4, 9, 6, 29, 21, 31, 23, 27, 10, 8, 8, 9, 8, 8, 6, 7, 7, 6, 26, 23, 24, 21, 16, 12, 9, 11, 9, 14, 16, 13, 15, 12, 11, 15, 17, 13, 22, 18, 18, 21, 23, 31, 26, 8, 13, 12, 6, 8, 31, 37, 31, 34, 29, 34, 38, 35, 31, 37, 23, 23, 24, 24, 21 |
  54, 60, 42, 48, 34, 26, 17, 27, 30, 25, 19, 34, 28, 23, 27, 19, 17, 13, 7, 17, 5, 0, 6, 4, 8, 4, 6, 6, 7, 4, 17, 20, 15, 11, 15, 18, 24, 22, 19, 28, 11, 12, 12, 14, 14, 15, 13, 5, 12, 9, 25, 17, 27, 20, 24, 7, 6, 5, 6, 7, 5, 3, 4, 5, 3, 29, 26, 26, 24, 18, 10, 8, 9, 9, 11, 15, 12, 13, 10, 8, 13, 16, 11, 19, 16, 15, 19, 20, 29, 23, 7, 13, 11, 5, 6, 29, 35, 29, 32, 27, 31, 34, 32, 28, 34, 21, 21, 22, 22, 20 |
  52, 60, 42, 48, 33, 24, 18, 26, 29, 25, 24, 38, 32, 28, 31, 24, 21, 17, 11, 21, 7, 6, 0, 5, 5, 8, 11, 10, 11, 9, 22, 24, 19, 16, 18, 21, 28, 26, 23, 31, 13, 13, 16, 15, 17, 16, 16, 8, 13, 9, 27, 19, 29, 24, 24, 12, 11, 10, 10, 12, 7, 8, 8, 10, 6, 30, 27, 28, 25, 20, 14, 13, 13, 13, 16, 12, 9, 11, 9, 9, 18, 20, 16, 24, 20, 15, 17, 20, 28, 22, 3, 8, 8, 3, 6, 27, 33, 28, 30, 25, 31, 35, 33, 28, 35, 26, 25, 27, 26, 25 |
  54, 61, 43, 49, 35, 24, 16, 25, 28, 24, 21, 36, 30, 25, 29, 22, 20, 16, 10, 20, 2, 4, 4, 0, 4, 5, 8, 7, 9, 7, 19, 22, 16, 14, 16, 19, 25, 23, 21, 29, 13, 13, 15, 16, 16, 14, 14, 6, 11, 7, 27, 19, 29, 23, 25, 10, 9, 8, 9, 9, 7, 6, 7, 8, 5, 28, 25, 26, 23, 18, 12, 10, 12, 11, 14, 14, 11, 13, 10, 10, 16, 18, 14, 22, 19, 16, 19, 21, 30, 23, 6, 11, 10, 4, 6, 29, 35, 29, 32, 27, 32, 36, 34, 29, 35, 24, 24, 25, 25, 22 |
  54, 62, 44, 50, 36, 22, 16, 23, 27, 23, 23, 37, 31, 27, 30, 24, 22, 18, 12, 22, 4, 7, 4, 4, 0, 7, 10, 9, 10, 9, 21, 23, 18, 15, 16, 20, 27, 24, 22, 30, 15, 15, 17, 17, 18, 13, 14, 7, 11, 7, 29, 21, 31, 25, 26, 12, 11, 10, 11, 11, 9, 8, 9, 10, 7, 28, 25, 26, 23, 18, 14, 12, 14, 13, 16, 14, 11, 14, 11, 11, 18, 20, 16, 24, 21, 17, 19, 22, 31, 24, 5, 10, 10, 5, 8, 30, 36, 30, 33, 28, 33, 37, 35, 30, 37, 26, 26, 27, 27, 24 |
  57, 62, 45, 50, 36, 25, 15, 25, 29, 24, 16, 31, 25, 20, 24, 19, 16, 12, 7, 17, 4, 4, 8, 5, 7, 0, 6, 4, 5, 8, 14, 17, 12, 9, 12, 15, 21, 19, 16, 25, 12, 14, 13, 16, 15, 13, 11, 3, 10, 8, 27, 19, 29, 21, 27, 6, 4, 5, 7, 4, 7, 4, 6, 4, 5, 26, 23, 23, 21, 15, 8, 6, 8, 6, 10, 18, 15, 16, 13, 11, 12, 14, 9, 18, 15, 18, 22, 23, 31, 26, 10, 15, 14, 8, 9, 31, 37, 31, 35, 30, 34, 36, 33, 30, 35, 19, 19, 20, 21, 18 |
  58, 62, 44, 50, 36, 27, 16, 28, 31, 25, 14, 30, 24, 18, 22, 16, 13, 9, 6, 14, 7, 6, 11, 8, 10, 5, 0, 6, 6, 10, 12, 15, 11, 6, 12, 13, 19, 18, 14, 24, 12, 14, 11, 16, 14, 15, 11, 5, 12, 10, 26, 18, 28, 19, 27, 4, 2, 4, 6, 2, 8, 4, 6, 3, 7, 27, 24, 23, 22, 16, 5, 3, 6, 4, 7, 19, 17, 17, 15, 12, 9, 11, 6, 15, 12, 18, 23, 23, 31, 27, 13, 18, 17, 10, 10, 32, 38, 32, 36, 31, 34, 36, 32, 30, 34, 16, 16, 17, 18, 15 |
  60, 64, 47, 52, 38, 24, 12, 24, 27, 22, 15, 29, 23, 19, 22, 20, 17, 13, 9, 18, 5, 6, 10, 7, 9, 3, 7, 0, 4, 8, 13, 15, 10, 8, 10, 12, 19, 17, 14, 23, 15, 16, 14, 18, 17, 11, 8, 2, 8, 7, 29, 21, 31, 22, 29, 7, 5, 7, 9, 4, 10, 6, 8, 6, 8, 24, 21, 21, 19, 13, 8, 5, 9, 5, 11, 20, 17, 18, 16, 14, 12, 13, 9, 18, 15, 20, 24, 25, 33, 29, 12, 17, 17, 10, 11, 34, 40, 34, 38, 33, 36, 39, 35, 32, 37, 18, 19, 20, 21, 17 |
  60, 64, 47, 52, 38, 25, 14, 26, 29, 23, 13, 28, 22, 17, 21, 18, 15, 11, 8, 16, 7, 7, 11, 9, 10, 6, 5, 5, 0, 9, 11, 14, 9, 6, 10, 11, 18, 16, 13, 22, 14, 16, 13, 18, 16, 13, 9, 4, 10, 9, 29, 20, 30, 21, 29, 6, 4, 6, 8, 2, 10, 6, 8, 5, 8, 25, 22, 21, 20, 14, 6, 3, 8, 3, 9, 21, 18, 19, 16, 14, 10, 11, 7, 16, 13, 20, 25, 25, 33, 29, 14, 19, 18, 12, 12, 34, 40, 34, 38, 33, 36, 38, 34, 32, 37, 16, 17, 17, 19, 14 |
  56, 60, 43, 48, 34, 27, 17, 28, 31, 26, 16, 32, 26, 20, 24, 17, 14, 10, 5, 14, 6, 4, 9, 7, 9, 5, 6, 4, 3, 0, 15, 17, 13, 8, 14, 15, 21, 20, 17, 26, 10, 12, 10, 14, 13, 16, 13, 5, 12, 10, 25, 17, 27, 18, 25, 4, 2, 3, 4, 4, 6, 2, 4, 2, 5, 28, 25, 25, 23, 17, 6, 5, 6, 6, 8, 17, 15, 15, 13, 10, 10, 12, 8, 16, 13, 16, 21, 21, 29, 25, 11, 16, 15, 8, 8, 30, 36, 30, 34, 29, 32, 34, 31, 28, 33, 18, 17, 18, 19, 17 |
  70, 71, 54, 59, 46, 29, 15, 28, 30, 24, 5, 18, 12, 8, 10, 19, 17, 14, 17, 20, 17, 17, 22, 19, 21, 14, 12, 13, 11, 15, 0, 5, 4, 9, 9, 3, 7, 8, 3, 13, 22, 25, 19, 26, 23, 17, 11, 14, 15, 16, 35, 27, 36, 25, 37, 13, 13, 15, 17, 11, 20, 16, 18, 14, 19, 21, 20, 16, 17, 13, 11, 10, 14, 9, 13, 31, 29, 29, 27, 24, 11, 10, 9, 16, 16, 30, 35, 34, 42, 39, 24, 29, 28, 22, 22, 43, 49, 43, 47, 43, 44, 45, 40, 40, 43, 11, 14, 13, 18, 8 |
  72, 73, 56, 61, 48, 31, 17, 30, 32, 26, 5, 15, 10, 6, 7, 20, 18, 16, 19, 21, 20, 20, 24, 22, 23, 17, 15, 15, 14, 17, 9, 0, 10, 15, 15, 5, 5, 8, 2, 11, 24, 27, 21, 28, 25, 19, 13, 17, 18, 19, 37, 29, 37, 26, 39, 16, 16, 18, 20, 14, 22, 19, 20, 17, 21, 21, 21, 16, 18, 15, 14, 13, 17, 12, 15, 34, 31, 31, 29, 26, 13, 11, 11, 17, 17, 32, 38, 36, 44, 41, 27, 32, 31, 25, 25, 46, 51, 45, 50, 45, 46, 46, 42, 42, 44, 10, 14, 13, 18, 8 |
  69, 72, 54, 60, 46, 24, 11, 24, 26, 20, 9, 20, 14, 12, 14, 21, 19, 16, 16, 21, 14, 15, 19, 16, 18, 12, 11, 10, 9, 13, 6, 11, 0, 11, 10, 3, 10, 8, 6, 13, 22, 24, 20, 26, 24, 12, 7, 11, 11, 13, 36, 27, 37, 26, 37, 13, 12, 14, 16, 10, 18, 14, 16, 13, 17, 18, 17, 13, 14, 9, 11, 10, 14, 8, 14, 29, 26, 27, 25, 22, 13, 12, 10, 19, 17, 29, 34, 33, 41, 37, 22, 27, 26, 20, 20, 43, 48, 42, 46, 42, 44, 45, 41, 40, 44, 15, 18, 17, 21, 12 |
  62, 64, 47, 53, 39, 29, 16, 29, 32, 26, 8, 25, 19, 12, 17, 14, 12, 8, 9, 14, 12, 11, 16, 14, 15, 9, 6, 8, 6, 8, 10, 15, 10, 0, 10, 9, 15, 15, 10, 20, 15, 17, 12, 19, 16, 17, 11, 10, 14, 13, 28, 20, 29, 19, 30, 6, 6, 8, 10, 5, 13, 9, 11, 8, 12, 25, 24, 21, 21, 15, 4, 4, 7, 3, 7, 24, 22, 22, 20, 17, 6, 6, 2, 12, 10, 23, 28, 27, 34, 31, 18, 23, 22, 16, 15, 36, 42, 35, 40, 36, 37, 38, 34, 33, 36, 11, 12, 12, 15, 9 |
  69, 73, 56, 61, 47, 21, 7, 20, 22, 17, 13, 21, 16, 16, 17, 25, 22, 18, 17, 24, 13, 15, 18, 16, 16, 12, 12, 10, 10, 14, 10, 14, 9, 15, 0, 6, 12, 8, 9, 14, 23, 25, 22, 27, 25, 9, 3, 10, 8, 10, 38, 29, 39, 29, 38, 15, 13, 15, 17, 11, 19, 15, 17, 14, 17, 15, 13, 11, 11, 5, 14, 11, 16, 9, 17, 29, 26, 27, 25, 23, 16, 16, 13, 22, 20, 30, 34, 34, 43, 38, 21, 25, 25, 19, 20, 43, 49, 43, 47, 42, 45, 47, 44, 41, 46, 19, 21, 21, 24, 16 |
  71, 73, 56, 61, 48, 26, 13, 25, 27, 22, 8, 17, 11, 10, 11, 22, 19, 16, 18, 22, 17, 18, 21, 19, 20, 15, 13, 12, 11, 15, 3, 5, 3, 9, 6, 0, 9, 9, 5, 13, 24, 26, 21, 27, 25, 14, 9, 14, 13, 15, 37, 29, 38, 27, 39, 15, 14, 16, 18, 12, 20, 17, 18, 15, 19, 18, 17, 13, 15, 10, 13, 11, 16, 10, 15, 32, 29, 29, 27, 25, 14, 12, 11, 19, 18, 31, 36, 35, 43, 39, 24, 29, 28, 22, 23, 44, 50, 44, 48, 44, 46, 47, 42, 41, 45, 14, 17, 16, 20, 11 |
  77, 78, 61, 66, 53, 30, 18, 29, 30, 25, 10, 11, 5, 9, 6, 25, 23, 21, 24, 26, 23, 24, 28, 25, 27, 21, 19, 19, 18, 21, 7, 5, 10, 15, 12, 8, 0, 6, 6, 6, 29, 32, 26, 33, 30, 20, 15, 20, 19, 21, 42, 34, 42, 31, 44, 20, 20, 22, 24, 18, 27, 23, 24, 21, 25, 18, 19, 13, 17, 14, 18, 17, 21, 16, 20, 38, 35, 36, 33, 31, 18, 16, 16, 22, 22, 37, 42, 41, 49, 45, 31, 36, 35, 29, 29, 50, 56, 49, 54, 50, 51, 51, 47, 47, 49, 15, 19, 17, 23, 12 |
  76, 79, 61, 67, 53, 25, 13, 24, 25, 20, 12, 14, 8, 13, 11, 27, 25, 22, 23, 27, 21, 22, 26, 23, 24, 19, 18, 17, 16, 20, 8, 8, 8, 15, 8, 10, 12, 0, 11, 6, 29, 31, 26, 33, 31, 15, 11, 18, 15, 18, 43, 34, 43, 32, 44, 20, 19, 22, 23, 17, 25, 21, 23, 20, 24, 14, 14, 8, 12, 9, 18, 17, 21, 15, 21, 36, 33, 34, 32, 30, 19, 18, 16, 24, 23, 36, 41, 41, 48, 45, 28, 33, 33, 27, 27, 50, 55, 49, 54, 49, 51, 52, 48, 47, 50, 18, 22, 20, 25, 15 |
  72, 73, 56, 62, 48, 29, 15, 28, 30, 24, 6, 16, 10, 8, 9, 21, 19, 17, 19, 21, 19, 19, 23, 21, 22, 16, 14, 14, 13, 17, 3, 2, 6, 10, 9, 7, 7, 10, 0, 14, 24, 27, 21, 28, 25, 17, 11, 16, 16, 18, 37, 29, 38, 27, 39, 15, 15, 18, 19, 13, 22, 18, 20, 17, 21, 19, 19, 14, 17, 13, 13, 13, 17, 11, 15, 33, 30, 31, 29, 26, 13, 12, 11, 18, 17, 32, 37, 36, 44, 41, 26, 31, 30, 24, 24, 45, 51, 45, 50, 45, 46, 47, 42, 42, 45, 12, 16, 14, 19, 9 |
  81, 83, 67, 72, 58, 29, 18, 27, 28, 23, 16, 8, 4, 15, 11, 31, 29, 27, 29, 32, 27, 28, 31, 29, 30, 25, 24, 23, 22, 26, 13, 11, 13, 20, 14, 12, 8, 8, 13, 0, 34, 37, 32, 38, 36, 20, 17, 24, 21, 24, 48, 39, 48, 37, 49, 25, 25, 27, 29, 23, 31, 27, 29, 26, 30, 14, 16, 10, 14, 14, 23, 22, 27, 21, 25, 42, 39, 40, 38, 35, 24, 22, 21, 28, 27, 42, 46, 46, 54, 50, 34, 39, 39, 32, 33, 55, 61, 55, 59, 54, 56, 57, 53, 52, 55, 21, 25, 23, 29, 18 |
  48, 51, 33, 39, 25, 36, 27, 37, 40, 36, 21, 39, 34, 25, 30, 13, 12, 10, 6, 10, 14, 11, 13, 13, 15, 12, 12, 15, 14, 10, 22, 24, 22, 15, 23, 24, 29, 29, 24, 34, 0, 4, 5, 3, 5, 25, 22, 15, 22, 19, 15, 7, 17, 11, 15, 10, 11, 8, 6, 13, 7, 9, 7, 10, 8, 38, 35, 34, 33, 27, 11, 13, 8, 15, 10, 13, 13, 10, 10, 6, 13, 15, 14, 15, 12, 9, 15, 13, 20, 17, 13, 17, 14, 11, 8, 22, 27, 21, 26, 22, 23, 25, 21, 19, 23, 21, 18, 20, 17, 21 |
  46, 49, 31, 37, 23, 37, 28, 38, 41, 37, 24, 42, 36, 28, 33, 16, 15, 13, 9, 13, 15, 12, 13, 13, 15, 14, 14, 16, 16, 12, 25, 27, 24, 17, 25, 26, 32, 31, 27, 37, 3, 0, 8, 3, 8, 26, 24, 16, 23, 20, 14, 7, 17, 13, 13, 12, 13, 10, 8, 15, 7, 11, 9, 11, 9, 40, 37, 36, 34, 29, 14, 15, 11, 17, 13, 11, 11, 7, 8, 5, 15, 18, 16, 18, 14, 6, 12, 10, 18, 15, 12, 15, 12, 11, 8, 19, 25, 18, 23, 19, 21, 23, 21, 17, 23, 24, 21, 23, 20, 24 |
  52, 53, 36, 41, 27, 37, 26, 38, 41, 36, 18, 36, 30, 21, 26, 9, 8, 6, 6, 6, 15, 12, 16, 15, 17, 13, 11, 14, 13, 10, 19, 21, 20, 12, 22, 21, 26, 26, 21, 32, 5, 9, 0, 8, 5, 25, 21, 15, 22, 20, 17, 8, 18, 9, 19, 8, 10, 8, 7, 11, 9, 10, 8, 9, 10, 37, 34, 33, 32, 26, 9, 11, 6, 13, 7, 18, 17, 14, 14, 10, 9, 11, 11, 10, 7, 13, 19, 16, 23, 22, 16, 20, 18, 14, 11, 26, 31, 24, 30, 26, 25, 26, 22, 21, 24, 16, 13, 16, 13, 17 |
  44, 47, 29, 35, 21, 39, 30, 40, 43, 39, 25, 43, 38, 29, 34, 15, 15, 13, 10, 12, 17, 14, 15, 16, 17, 16, 16, 18, 18, 14, 26, 28, 26, 19, 27, 27, 33, 33, 28, 38, 3, 5, 7, 0, 7, 28, 26, 18, 25, 22, 12, 5, 14, 11, 12, 13, 15, 12, 10, 16, 10, 13, 11, 13, 11, 42, 39, 38, 37, 31, 15, 17, 12, 18, 14, 12, 12, 9, 9, 7, 16, 19, 17, 18, 15, 6, 12, 9, 16, 14, 14, 17, 14, 13, 10, 18, 23, 17, 22, 18, 19, 21, 18, 15, 20, 24, 21, 23, 20, 24 |
  48, 49, 31, 37, 23, 39, 29, 40, 43, 39, 22, 40, 35, 25, 30, 11, 11, 10, 9, 8, 17, 14, 17, 16, 18, 15, 14, 17, 16, 13, 23, 25, 24, 16, 25, 25, 30, 31, 25, 36, 5, 9, 4, 8, 0, 28, 25, 18, 25, 22, 13, 4, 14, 8, 15, 11, 13, 11, 9, 15, 10, 12, 10, 12, 12, 40, 38, 36, 35, 29, 13, 15, 10, 17, 11, 15, 16, 12, 13, 10, 13, 15, 15, 13, 11, 10, 17, 13, 19, 18, 16, 20, 17, 15, 12, 22, 27, 20, 26, 22, 21, 22, 19, 17, 21, 20, 17, 19, 15, 21 |
  67, 74, 57, 62, 48, 13, 3, 13, 16, 11, 21, 28, 23, 24, 25, 30, 27, 23, 20, 29, 12, 15, 16, 14, 13, 13, 15, 11, 13, 16, 17, 19, 12, 17, 9, 14, 20, 15, 17, 20, 25, 26, 25, 28, 28, 0, 7, 10, 3, 6, 40, 32, 42, 33, 39, 18, 16, 18, 19, 15, 19, 16, 18, 17, 17, 16, 12, 14, 10, 6, 18, 15, 20, 14, 21, 27, 24, 26, 24, 23, 22, 22, 18, 28, 26, 29, 32, 34, 43, 37, 18, 22, 22, 18, 20, 42, 49, 43, 46, 40, 46, 49, 46, 42, 48, 26, 28, 28, 31, 24 |
  67, 72, 55, 60, 46, 19, 6, 18, 21, 15, 15, 24, 18, 18, 20, 25, 22, 19, 17, 24, 11, 13, 16, 14, 14, 11, 11, 8, 9, 13, 11, 13, 7, 11, 3, 9, 15, 11, 11, 17, 22, 24, 21, 26, 25, 5, 0, 6, 4, 7, 37, 29, 38, 29, 37, 14, 12, 15, 16, 11, 17, 14, 16, 13, 16, 16, 13, 13, 11, 5, 14, 11, 16, 9, 17, 27, 24, 26, 23, 21, 17, 17, 13, 23, 21, 28, 32, 33, 41, 36, 19, 23, 23, 17, 19, 42, 48, 41, 45, 40, 44, 46, 43, 40, 45, 20, 23, 22, 25, 18 |
  59, 65, 47, 53, 38, 22, 12, 23, 26, 21, 17, 30, 25, 21, 24, 21, 18, 14, 10, 19, 4, 5, 8, 6, 7, 3, 5, 2, 4, 5, 14, 17, 11, 10, 10, 14, 20, 18, 16, 24, 15, 16, 15, 18, 18, 11, 9, 0, 11, 8, 30, 21, 31, 23, 29, 9, 6, 8, 9, 6, 9, 6, 8, 7, 8, 24, 21, 21, 19, 13, 10, 7, 10, 7, 12, 19, 16, 18, 15, 13, 13, 15, 11, 20, 17, 20, 24, 25, 33, 28, 11, 16, 15, 9, 11, 33, 39, 33, 37, 32, 36, 39, 36, 32, 38, 20, 21, 21, 23, 18 |
  64, 71, 54, 59, 45, 16, 5, 16, 19, 14, 19, 28, 23, 22, 24, 27, 24, 20, 17, 26, 9, 12, 13, 11, 11, 10, 12, 8, 10, 12, 15, 18, 11, 14, 8, 13, 19, 15, 16, 21, 22, 23, 22, 25, 25, 3, 5, 6, 0, 5, 37, 28, 38, 30, 36, 15, 13, 14, 16, 12, 16, 13, 15, 13, 14, 18, 14, 16, 13, 8, 15, 12, 17, 11, 18, 25, 21, 24, 21, 20, 19, 20, 16, 26, 23, 26, 30, 31, 40, 34, 16, 20, 20, 15, 17, 40, 46, 40, 43, 38, 43, 46, 43, 39, 45, 24, 25, 26, 28, 21 |
  61, 68, 50, 56, 42, 18, 9, 19, 22, 17, 20, 31, 25, 23, 26, 26, 23, 19, 14, 24, 6, 9, 9, 7, 7, 8, 10, 7, 9, 10, 16, 19, 13, 13, 10, 15, 21, 18, 18, 24, 19, 20, 20, 22, 22, 6, 10, 6, 6, 0, 34, 26, 36, 28, 32, 13, 11, 12, 14, 10, 13, 10, 12, 11, 11, 22, 18, 19, 16, 11, 14, 11, 15, 11, 17, 21, 17, 20, 17, 16, 18, 19, 15, 24, 21, 23, 26, 28, 37, 30, 12, 16, 16, 11, 13, 36, 42, 36, 39, 34, 39, 43, 40, 36, 42, 24, 25, 25, 27, 22 |
  39, 36, 20, 25, 12, 50, 41, 51, 55, 50, 33, 52, 46, 36, 42, 19, 20, 21, 21, 17, 29, 25, 27, 27, 29, 27, 26, 29, 29, 25, 35, 37, 36, 28, 38, 37, 42, 43, 37, 48, 15, 14, 17, 12, 13, 40, 37, 30, 37, 34, 0, 9, 4, 10, 8, 24, 25, 23, 21, 27, 21, 24, 22, 24, 23, 53, 50, 49, 48, 42, 25, 27, 22, 29, 23, 20, 22, 18, 20, 18, 25, 27, 27, 23, 21, 14, 17, 11, 10, 15, 25, 27, 24, 24, 21, 15, 18, 13, 19, 18, 11, 10, 7, 7, 9, 30, 26, 29, 23, 32 |
  45, 45, 28, 33, 20, 43, 33, 44, 47, 42, 25, 44, 38, 29, 34, 13, 13, 13, 13, 10, 21, 17, 19, 19, 21, 19, 18, 21, 20, 17, 27, 29, 27, 20, 29, 29, 34, 34, 29, 39, 7, 7, 8, 5, 4, 32, 29, 21, 28, 26, 10, 0, 11, 9, 12, 15, 17, 15, 13, 19, 13, 16, 14, 16, 15, 44, 42, 40, 39, 33, 17, 19, 14, 20, 14, 16, 17, 13, 14, 11, 17, 19, 18, 16, 14, 10, 15, 10, 16, 16, 18, 21, 18, 17, 14, 19, 23, 17, 23, 20, 18, 18, 15, 13, 17, 23, 20, 22, 18, 24 |
  41, 36, 20, 25, 14, 53, 43, 54, 57, 52, 33, 52, 46, 36, 41, 19, 20, 22, 22, 17, 31, 27, 29, 29, 31, 29, 28, 31, 30, 27, 36, 37, 37, 29, 39, 38, 42, 43, 38, 48, 17, 17, 18, 14, 14, 42, 38, 31, 38, 36, 6, 11, 0, 8, 11, 25, 27, 25, 23, 28, 23, 26, 24, 26, 25, 54, 51, 50, 49, 43, 26, 28, 23, 30, 23, 23, 25, 21, 22, 21, 25, 27, 27, 22, 21, 17, 20, 14, 13, 18, 28, 30, 27, 27, 24, 18, 20, 15, 22, 21, 13, 10, 5, 9, 7, 30, 26, 28, 23, 32 |
  51, 48, 32, 36, 25, 45, 34, 46, 49, 43, 22, 40, 35, 24, 30, 7, 9, 11, 14, 6, 23, 20, 24, 23, 25, 21, 19, 22, 21, 18, 25, 26, 26, 19, 29, 27, 31, 32, 27, 37, 11, 13, 9, 11, 8, 33, 29, 23, 30, 28, 12, 10, 7, 0, 15, 15, 18, 16, 15, 19, 17, 18, 16, 17, 18, 44, 42, 39, 39, 33, 16, 18, 13, 20, 13, 22, 23, 19, 20, 17, 14, 15, 17, 11, 10, 17, 23, 18, 21, 23, 23, 27, 24, 22, 19, 25, 30, 24, 30, 27, 23, 21, 17, 19, 19, 18, 14, 17, 11, 20 |
  34, 36, 18, 24, 10, 48, 40, 49, 53, 49, 36, 54, 49, 39, 45, 24, 24, 24, 21, 21, 27, 24, 24, 25, 26, 27, 27, 29, 29, 25, 37, 39, 37, 30, 38, 39, 44, 44, 39, 49, 15, 13, 19, 12, 15, 39, 37, 29, 36, 32, 9, 13, 11, 17, 0, 25, 26, 23, 21, 27, 20, 24, 21, 24, 22, 52, 49, 49, 47, 41, 26, 28, 23, 30, 25, 15, 18, 14, 16, 16, 27, 29, 28, 27, 25, 10, 11, 5, 5, 8, 22, 22, 20, 22, 19, 8, 13, 6, 13, 10, 8, 12, 13, 5, 13, 34, 30, 33, 28, 35 |
  57, 59, 42, 47, 34, 30, 19, 31, 34, 29, 13, 31, 25, 17, 22, 13, 10, 6, 4, 11, 10, 7, 12, 10, 12, 6, 4, 7, 6, 4, 13, 16, 13, 6, 15, 15, 20, 20, 15, 25, 10, 12, 8, 13, 11, 18, 14, 9, 15, 13, 24, 15, 25, 15, 25, 0, 3, 5, 7, 4, 7, 5, 5, 3, 7, 30, 27, 25, 25, 19, 3, 4, 3, 6, 4, 19, 17, 16, 14, 11, 6, 9, 5, 12, 9, 17, 22, 21, 29, 26, 14, 19, 17, 12, 10, 31, 36, 30, 35, 30, 32, 33, 29, 28, 32, 15, 14, 15, 15, 14 |
  57, 61, 43, 49, 35, 28, 17, 29, 32, 26, 14, 30, 24, 18, 22, 15, 13, 8, 5, 13, 8, 6, 11, 9, 11, 4, 2, 5, 4, 2, 13, 16, 12, 6, 13, 14, 20, 19, 15, 25, 11, 13, 10, 15, 13, 16, 12, 6, 13, 11, 25, 17, 27, 18, 26, 2, 0, 5, 6, 2, 7, 4, 5, 2, 6, 28, 25, 24, 23, 17, 4, 3, 5, 5, 7, 19, 16, 16, 14, 11, 8, 10, 6, 14, 11, 18, 23, 22, 30, 26, 13, 18, 16, 10, 10, 31, 37, 31, 35, 30, 33, 35, 31, 29, 33, 16, 16, 17, 17, 15 |
  55, 58, 41, 46, 32, 29, 19, 30, 33, 28, 16, 33, 27, 20, 24, 15, 12, 8, 3, 13, 8, 5, 10, 8, 10, 5, 4, 7, 6, 3, 15, 18, 14, 8, 15, 16, 22, 22, 18, 27, 8, 10, 8, 12, 11, 18, 15, 8, 14, 12, 23, 15, 25, 16, 23, 5, 4, 0, 3, 5, 5, 2, 3, 2, 4, 30, 27, 26, 25, 19, 6, 6, 4, 7, 7, 16, 14, 14, 12, 9, 9, 11, 8, 15, 11, 15, 20, 20, 28, 24, 11, 16, 14, 9, 8, 29, 34, 28, 33, 28, 30, 32, 29, 26, 31, 17, 16, 18, 17, 16 |
  53, 56, 39, 44, 31, 31, 21, 32, 35, 30, 17, 35, 29, 21, 26, 14, 12, 8, 2, 12, 9, 6, 10, 9, 11, 7, 6, 9, 8, 4, 17, 20, 16, 10, 17, 18, 24, 23, 19, 29, 6, 8, 7, 10, 9, 19, 16, 9, 16, 14, 21, 13, 23, 15, 21, 8, 6, 2, 0, 7, 4, 4, 2, 4, 4, 32, 29, 28, 27, 21, 7, 7, 5, 9, 7, 15, 13, 12, 11, 7, 10, 12, 9, 15, 11, 13, 19, 18, 26, 22, 11, 16, 14, 9, 7, 27, 33, 26, 31, 26, 28, 30, 27, 24, 29, 18, 17, 18, 17, 18 |
  59, 63, 45, 51, 37, 27, 15, 27, 30, 25, 13, 29, 23, 17, 21, 16, 13, 9, 7, 14, 8, 7, 12, 9, 11, 4, 2, 4, 2, 4, 11, 14, 10, 5, 11, 12, 18, 17, 13, 23, 13, 15, 11, 16, 15, 15, 11, 6, 12, 10, 27, 19, 28, 19, 27, 4, 1, 5, 6, 0, 9, 5, 7, 4, 8, 26, 24, 22, 21, 15, 4, 2, 6, 3, 7, 20, 18, 18, 16, 13, 8, 10, 5, 15, 12, 19, 24, 24, 32, 28, 14, 19, 18, 12, 11, 33, 39, 32, 37, 32, 35, 36, 33, 31, 35, 15, 15, 16, 17, 14 |
  51, 56, 38, 44, 29, 30, 21, 31, 34, 30, 20, 37, 31, 24, 29, 17, 15, 11, 5, 14, 8, 5, 7, 7, 9, 7, 8, 10, 10, 6, 20, 22, 18, 13, 19, 20, 27, 25, 22, 31, 7, 7, 9, 10, 10, 19, 17, 9, 16, 13, 21, 13, 23, 17, 20, 7, 7, 5, 4, 9, 0, 5, 2, 8, 3, 33, 30, 30, 28, 22, 10, 10, 8, 11, 11, 12, 10, 10, 8, 5, 13, 16, 12, 18, 14, 11, 16, 16, 24, 20, 8, 13, 10, 6, 3, 25, 31, 25, 29, 24, 27, 30, 27, 24, 29, 21, 20, 22, 20, 21 |
  55, 59, 41, 47, 33, 28, 18, 29, 32, 27, 17, 33, 27, 21, 25, 17, 14, 10, 4, 14, 6, 3, 8, 6, 8, 4, 4, 6, 6, 2, 16, 19, 14, 9, 15, 17, 23, 21, 18, 27, 9, 11, 10, 13, 12, 16, 14, 6, 13, 10, 24, 16, 26, 18, 24, 5, 4, 2, 4, 5, 4, 0, 4, 4, 3, 29, 26, 26, 24, 18, 7, 6, 6, 7, 9, 16, 13, 13, 11, 9, 11, 13, 9, 16, 13, 15, 20, 20, 28, 24, 10, 15, 13, 7, 7, 29, 35, 28, 33, 28, 31, 33, 30, 27, 32, 19, 18, 19, 19, 18 |
  53, 57, 39, 45, 31, 30, 20, 30, 34, 29, 18, 35, 29, 22, 27, 16, 14, 10, 3, 13, 7, 4, 8, 7, 9, 6, 6, 8, 8, 4, 18, 20, 16, 11, 17, 18, 24, 23, 20, 29, 7, 9, 8, 11, 10, 18, 16, 8, 15, 12, 22, 14, 24, 16, 21, 5, 5, 3, 2, 7, 3, 6, 0, 7, 4, 31, 29, 28, 26, 20, 8, 8, 6, 9, 9, 14, 12, 12, 10, 7, 11, 14, 10, 16, 13, 13, 18, 18, 26, 22, 9, 14, 12, 7, 5, 27, 33, 26, 31, 26, 29, 31, 28, 25, 30, 19, 18, 20, 19, 19 |
  56, 60, 42, 48, 34, 28, 18, 29, 32, 27, 15, 32, 26, 19, 24, 15, 13, 9, 4, 13, 7, 5, 10, 8, 10, 4, 3, 6, 5, 2, 14, 17, 13, 8, 14, 15, 21, 20, 17, 26, 10, 11, 9, 13, 12, 17, 13, 7, 13, 11, 24, 16, 26, 17, 24, 3, 2, 2, 4, 4, 7, 5, 8, 0, 7, 29, 26, 25, 24, 18, 5, 5, 5, 6, 7, 17, 15, 15, 13, 10, 9, 11, 7, 15, 11, 16, 21, 21, 29, 25, 11, 17, 15, 9, 8, 30, 36, 29, 34, 29, 31, 34, 30, 28, 32, 17, 16, 17, 17, 16 |
  52, 57, 40, 45, 31, 28, 19, 29, 32, 28, 20, 36, 30, 24, 28, 18, 16, 12, 5, 15, 6, 3, 6, 5, 7, 5, 7, 8, 8, 5, 19, 21, 17, 12, 17, 19, 25, 24, 21, 30, 8, 9, 10, 11, 12, 17, 16, 8, 14, 11, 23, 15, 25, 18, 22, 7, 6, 4, 4, 8, 3, 5, 3, 8, 0, 31, 28, 28, 26, 20, 10, 9, 8, 10, 11, 13, 11, 11, 9, 6, 13, 15, 12, 18, 15, 13, 17, 18, 26, 21, 7, 12, 11, 5, 4, 27, 32, 26, 30, 25, 29, 32, 29, 25, 31, 21, 20, 22, 21, 20 |
  82, 88, 70, 76, 62, 17, 13, 15, 15, 11, 25, 20, 18, 26, 24, 39, 36, 33, 32, 39, 26, 29, 30, 28, 28, 26, 27, 24, 25, 28, 21, 21, 18, 25, 15, 18, 18, 14, 19, 14, 38, 40, 37, 42, 40, 16, 16, 24, 18, 22, 53, 44, 54, 44, 52, 30, 28, 30, 32, 26, 33, 29, 31, 29, 31, 0, 4, 9, 8, 15, 29, 26, 31, 24, 31, 42, 39, 41, 38, 37, 31, 30, 27, 36, 35, 44, 47, 48, 57, 51, 33, 37, 37, 32, 34, 57, 63, 57, 60, 55, 60, 62, 58, 56, 61, 31, 35, 33, 38, 28 |
  78, 85, 67, 73, 59, 14, 9, 12, 12, 7, 25, 23, 19, 26, 25, 37, 35, 31, 29, 37, 23, 26, 27, 25, 25, 23, 24, 21, 22, 25, 20, 21, 17, 24, 13, 17, 19, 14, 19, 16, 35, 37, 34, 39, 38, 12, 13, 21, 14, 18, 50, 42, 51, 42, 49, 27, 25, 27, 29, 24, 30, 26, 29, 26, 28, 5, 0, 10, 4, 12, 27, 24, 29, 22, 29, 39, 35, 37, 35, 34, 29, 28, 26, 35, 33, 40, 43, 45, 54, 48, 30, 33, 34, 29, 31, 54, 60, 54, 57, 52, 57, 59, 56, 53, 58, 30, 34, 33, 37, 27 |
  79, 84, 67, 72, 58, 20, 11, 18, 19, 14, 20, 17, 13, 21, 19, 34, 32, 29, 28, 34, 24, 26, 28, 26, 26, 23, 23, 21, 21, 25, 16, 16, 13, 21, 11, 13, 13, 8, 14, 10, 34, 36, 33, 38, 36, 14, 13, 21, 16, 19, 49, 40, 50, 39, 49, 25, 24, 26, 28, 22, 30, 26, 28, 25, 28, 5, 8, 0, 9, 11, 24, 22, 27, 20, 27, 40, 36, 38, 35, 34, 26, 25, 23, 31, 30, 40, 44, 45, 53, 49, 31, 35, 35, 29, 31, 54, 60, 54, 57, 52, 56, 58, 54, 52, 56, 26, 30, 28, 33, 23 |
  76, 83, 65, 71, 57, 15, 8, 13, 14, 9, 22, 22, 18, 24, 23, 35, 32, 29, 27, 34, 21, 24, 25, 23, 23, 21, 22, 19, 20, 23, 17, 18, 14, 21, 11, 15, 17, 12, 17, 14, 33, 34, 32, 37, 35, 10, 11, 19, 13, 16, 48, 39, 49, 39, 47, 25, 23, 25, 27, 21, 28, 24, 26, 24, 26, 8, 4, 10, 0, 10, 24, 21, 27, 20, 27, 37, 33, 35, 33, 32, 26, 26, 23, 32, 31, 38, 42, 43, 52, 46, 28, 31, 32, 27, 29, 52, 58, 52, 55, 50, 54, 57, 54, 51, 56, 28, 31, 30, 34, 25 |
  71, 77, 59, 65, 51, 17, 4, 16, 18, 12, 18, 22, 17, 20, 20, 29, 26, 23, 21, 28, 16, 18, 20, 18, 18, 15, 16, 13, 14, 17, 13, 15, 9, 15, 5, 10, 14, 9, 13, 14, 27, 29, 26, 31, 29, 6, 5, 13, 8, 11, 42, 33, 43, 33, 41, 19, 17, 19, 21, 15, 22, 18, 20, 18, 20, 11, 9, 7, 8, 0, 18, 15, 21, 14, 21, 31, 28, 30, 27, 26, 21, 20, 17, 27, 25, 33, 36, 37, 46, 41, 23, 27, 27, 21, 23, 46, 52, 46, 50, 44, 49, 51, 48, 45, 50, 23, 26, 25, 29, 20 |
  59, 61, 44, 49, 35, 31, 19, 31, 34, 29, 11, 29, 23, 15, 20, 12, 9, 5, 6, 11, 12, 10, 14, 12, 14, 8, 5, 8, 6, 6, 11, 14, 11, 4, 14, 13, 18, 18, 13, 23, 11, 14, 9, 15, 13, 18, 14, 10, 15, 14, 25, 17, 26, 16, 26, 3, 4, 6, 7, 4, 10, 7, 8, 5, 10, 29, 27, 24, 24, 18, 0, 5, 7, 7, 10, 21, 19, 19, 17, 14, 4, 6, 3, 11, 8, 19, 25, 23, 31, 28, 16, 21, 20, 14, 13, 33, 38, 32, 37, 32, 33, 34, 30, 29, 33, 12, 12, 13, 13, 11 |
  60, 63, 45, 51, 37, 28, 16, 28, 31, 26, 11, 28, 22, 15, 20, 15, 12, 8, 7, 14, 9, 8, 13, 10, 12, 6, 3, 5, 3, 5, 10, 13, 10, 4, 11, 11, 17, 17, 13, 22, 13, 15, 11, 17, 15, 15, 11, 7, 12, 11, 27, 19, 28, 18, 28, 4, 3, 6, 7, 2, 10, 6, 8, 5, 9, 26, 24, 22, 21, 15, 4, 0, 8, 5, 11, 21, 19, 19, 17, 14, 7, 9, 4, 14, 11, 20, 25, 24, 32, 29, 15, 20, 19, 13, 12, 34, 39, 33, 38, 33, 35, 37, 33, 31, 35, 14, 14, 15, 16, 12 |
  56, 58, 41, 46, 32, 32, 21, 33, 36, 31, 14, 32, 26, 18, 23, 11, 9, 4, 3, 9, 11, 9, 13, 12, 14, 8, 6, 9, 8, 6, 14, 17, 14, 7, 16, 16, 21, 21, 17, 27, 8, 11, 6, 12, 10, 20, 16, 10, 17, 15, 22, 14, 23, 13, 23, 3, 5, 4, 5, 6, 8, 6, 6, 5, 8, 31, 29, 27, 27, 21, 6, 8, 0, 12, 3, 19, 17, 16, 14, 11, 6, 8, 6, 11, 7, 16, 22, 20, 28, 25, 15, 20, 18, 12, 11, 30, 35, 29, 34, 29, 30, 31, 28, 26, 30, 14, 13, 14, 13, 14 |
  61, 65, 47, 53, 39, 27, 14, 27, 30, 24, 11, 26, 20, 15, 19, 16, 14, 10, 9, 15, 9, 9, 13, 11, 13, 6, 4, 5, 3, 6, 9, 12, 8, 3, 9, 10, 16, 15, 11, 21, 15, 17, 13, 18, 17, 14, 9, 7, 11, 11, 29, 20, 30, 20, 30, 6, 5, 7, 9, 3, 11, 7, 9, 6, 10, 24, 22, 20, 20, 14, 6, 4, 11, 0, 12, 23, 20, 20, 18, 15, 8, 9, 5, 15, 12, 22, 27, 26, 34, 30, 16, 21, 20, 14, 13, 35, 41, 35, 39, 34, 37, 38, 35, 33, 37, 14, 15, 15, 17, 12 |
  58, 58, 42, 47, 34, 34, 22, 34, 37, 32, 12, 30, 24, 15, 21, 9, 7, 2, 6, 8, 14, 11, 16, 14, 16, 10, 7, 11, 9, 8, 13, 15, 14, 7, 17, 15, 20, 21, 15, 25, 10, 13, 7, 14, 11, 21, 17, 12, 18, 17, 23, 14, 23, 13, 25, 4, 7, 7, 7, 7, 11, 9, 9, 7, 11, 31, 29, 27, 27, 21, 6, 9, 4, 12, 0, 21, 20, 19, 17, 14, 3, 6, 5, 8, 5, 19, 24, 22, 29, 27, 17, 22, 20, 15, 13, 31, 37, 30, 36, 31, 31, 32, 28, 27, 30, 12, 10, 12, 11, 11 |
  40, 49, 31, 37, 23, 35, 30, 36, 40, 37, 32, 48, 43, 36, 40, 26, 25, 22, 16, 23, 16, 15, 12, 14, 14, 18, 19, 20, 21, 17, 31, 34, 29, 24, 29, 32, 38, 36, 33, 42, 13, 11, 18, 12, 15, 27, 27, 19, 25, 21, 20, 16, 23, 22, 15, 19, 19, 16, 15, 20, 12, 16, 14, 17, 13, 42, 39, 40, 37, 31, 21, 21, 19, 23, 21, 0, 5, 8, 7, 10, 24, 27, 24, 27, 24, 7, 5, 10, 18, 10, 9, 8, 6, 11, 10, 16, 22, 17, 19, 14, 21, 26, 26, 19, 27, 32, 30, 32, 30, 32 |
  44, 53, 35, 41, 27, 31, 26, 33, 36, 33, 30, 46, 40, 34, 38, 25, 24, 21, 14, 22, 13, 12, 9, 11, 11, 15, 17, 17, 18, 15, 29, 31, 26, 22, 26, 29, 35, 33, 30, 39, 13, 11, 17, 12, 16, 24, 24, 16, 21, 17, 22, 17, 25, 23, 18, 17, 16, 14, 13, 18, 10, 13, 12, 15, 11, 39, 35, 36, 33, 28, 19, 19, 17, 20, 20, 3, 0, 7, 7, 9, 22, 25, 22, 27, 23, 9, 9, 13, 21, 14, 6, 5, 2, 7, 7, 20, 26, 20, 23, 17, 24, 29, 29, 22, 30, 31, 29, 31, 29, 30 |
  42, 49, 31, 37, 23, 35, 28, 36, 40, 36, 29, 46, 40, 33, 38, 23, 21, 19, 13, 20, 15, 13, 11, 13, 14, 16, 17, 18, 19, 15, 29, 31, 27, 22, 27, 29, 36, 34, 31, 40, 10, 7, 14, 9, 12, 26, 26, 18, 24, 20, 18, 13, 21, 19, 14, 16, 16, 14, 12, 18, 10, 13, 12, 15, 11, 41, 37, 38, 35, 30, 19, 19, 16, 20, 19, 6, 8, 0, 2, 5, 21, 24, 21, 24, 21, 4, 7, 9, 18, 11, 9, 9, 7, 9, 8, 17, 23, 17, 20, 15, 20, 25, 24, 18, 26, 30, 27, 29, 27, 29 |
  45, 52, 34, 40, 25, 32, 26, 34, 37, 33, 27, 44, 38, 31, 36, 22, 21, 18, 12, 19, 12, 10, 9, 10, 11, 13, 15, 16, 16, 13, 27, 29, 25, 20, 25, 27, 33, 32, 29, 38, 10, 8, 14, 9, 13, 24, 23, 15, 21, 17, 20, 14, 22, 20, 16, 14, 14, 12, 11, 16, 8, 11, 10, 13, 9, 38, 35, 35, 33, 27, 17, 17, 14, 18, 17, 7, 7, 2, 0, 3, 20, 22, 19, 24, 20, 7, 9, 12, 20, 14, 6, 8, 5, 7, 5, 19, 25, 20, 23, 18, 23, 28, 26, 20, 28, 28, 26, 28, 26, 28 |
  47, 52, 34, 40, 26, 33, 25, 34, 37, 33, 24, 41, 35, 28, 33, 19, 17, 14, 8, 16, 11, 8, 9, 10, 11, 11, 12, 14, 14, 10, 24, 26, 22, 17, 23, 25, 31, 30, 26, 35, 6, 5, 10, 7, 10, 23, 21, 13, 20, 16, 18, 11, 21, 17, 16, 11, 11, 9, 7, 13, 5, 9, 7, 10, 6, 37, 34, 34, 32, 26, 14, 14, 11, 15, 14, 10, 9, 8, 6, 0, 16, 19, 16, 20, 16, 7, 12, 12, 21, 15, 8, 11, 8, 7, 4, 21, 27, 21, 24, 20, 23, 27, 25, 20, 27, 25, 23, 24, 22, 24 |
  60, 60, 44, 49, 36, 34, 22, 34, 37, 32, 9, 28, 22, 13, 18, 9, 6, 4, 9, 9, 15, 13, 18, 16, 18, 12, 9, 12, 10, 10, 11, 13, 13, 6, 16, 14, 18, 19, 13, 24, 13, 15, 9, 16, 13, 22, 17, 13, 19, 18, 25, 17, 25, 14, 27, 6, 8, 9, 10, 8, 13, 11, 11, 9, 13, 31, 29, 26, 26, 21, 4, 7, 6, 8, 3, 24, 22, 21, 20, 16, 0, 5, 4, 10, 7, 21, 27, 25, 31, 30, 20, 25, 23, 17, 16, 34, 39, 33, 38, 34, 34, 34, 29, 29, 32, 9, 8, 9, 10, 9 |
  63, 62, 46, 51, 38, 35, 22, 35, 37, 32, 7, 25, 20, 10, 16, 10, 7, 6, 11, 10, 17, 16, 20, 18, 20, 14, 11, 13, 11, 12, 10, 11, 12, 6, 16, 12, 16, 18, 12, 22, 15, 18, 11, 19, 15, 22, 17, 15, 20, 19, 27, 19, 27, 15, 29, 9, 10, 11, 12, 10, 16, 13, 14, 11, 15, 30, 28, 25, 26, 20, 6, 9, 8, 9, 6, 27, 25, 24, 22, 19, 4, 0, 7, 11, 8, 24, 30, 27, 34, 32, 22, 27, 25, 20, 18, 36, 42, 35, 41, 36, 36, 36, 31, 32, 34, 6, 6, 7, 9, 6 |
  61, 63, 46, 51, 37, 31, 18, 31, 34, 28, 9, 26, 21, 13, 17, 12, 10, 6, 8, 12, 13, 11, 16, 14, 16, 9, 6, 9, 7, 8, 9, 11, 10, 2, 13, 11, 16, 16, 11, 21, 14, 16, 11, 17, 15, 18, 13, 11, 16, 15, 27, 18, 27, 17, 28, 5, 6, 8, 9, 5, 12, 9, 10, 7, 12, 27, 26, 23, 23, 17, 3, 4, 6, 5, 5, 24, 22, 21, 19, 16, 6, 7, 0, 13, 10, 22, 27, 26, 33, 30, 18, 23, 22, 16, 15, 35, 40, 34, 39, 34, 35, 36, 32, 31, 34, 10, 11, 11, 13, 9 |
  60, 58, 42, 46, 35, 41, 28, 41, 44, 38, 12, 30, 25, 14, 20, 4, 3, 7, 13, 6, 22, 19, 24, 22, 24, 18, 15, 18, 16, 16, 16, 17, 19, 12, 22, 19, 22, 24, 18, 28, 15, 18, 10, 18, 13, 28, 23, 20, 26, 24, 23, 16, 22, 11, 27, 12, 14, 15, 15, 15, 18, 16, 16, 15, 18, 36, 35, 31, 32, 27, 11, 14, 11, 15, 8, 27, 27, 24, 24, 20, 8, 12, 12, 0, 5, 23, 29, 26, 31, 31, 25, 30, 27, 23, 20, 34, 39, 33, 39, 35, 33, 31, 26, 28, 29, 8, 4, 7, 3, 10 |
  58, 57, 40, 45, 33, 38, 26, 38, 41, 36, 13, 31, 26, 15, 21, 5, 2, 3, 10, 5, 18, 16, 20, 19, 21, 15, 12, 15, 13, 13, 16, 17, 17, 10, 20, 18, 22, 23, 17, 27, 12, 14, 7, 15, 11, 26, 21, 17, 23, 21, 21, 14, 21, 10, 25, 9, 11, 11, 11, 12, 14, 13, 13, 11, 15, 35, 33, 30, 31, 25, 8, 11, 7, 12, 5, 24, 23, 21, 20, 16, 6, 9, 10, 8, 0, 20, 26, 23, 29, 28, 21, 26, 24, 19, 17, 32, 37, 30, 36, 32, 31, 30, 26, 26, 28, 10, 7, 9, 7, 11 |
  40, 46, 28, 34, 19, 39, 31, 40, 43, 39, 30, 47, 41, 33, 38, 21, 20, 18, 14, 18, 18, 15, 15, 16, 17, 18, 18, 20, 20, 16, 30, 32, 29, 23, 30, 31, 37, 36, 32, 42, 9, 6, 13, 6, 10, 29, 28, 20, 26, 23, 14, 10, 17, 17, 10, 17, 18, 15, 13, 19, 11, 15, 13, 16, 13, 44, 40, 40, 38, 33, 19, 20, 16, 22, 19, 7, 9, 4, 7, 7, 21, 24, 22, 23, 20, 0, 5, 8, 12, 8, 13, 13, 11, 13, 10, 14, 20, 14, 18, 13, 17, 21, 20, 14, 22, 29, 26, 29, 25, 29 |
  36, 44, 26, 32, 18, 40, 34, 41, 45, 42, 35, 52, 47, 39, 44, 27, 26, 24, 19, 24, 21, 19, 17, 19, 19, 22, 23, 24, 25, 21, 35, 38, 34, 28, 34, 36, 42, 41, 37, 46, 15, 12, 19, 12, 17, 32, 32, 24, 30, 26, 17, 15, 20, 23, 11, 22, 23, 20, 19, 24, 16, 20, 18, 21, 17, 47, 43, 44, 42, 36, 25, 25, 22, 27, 24, 5, 9, 7, 9, 12, 27, 30, 27, 29, 26, 6, 0, 11, 14, 6, 14, 13, 11, 15, 14, 11, 17, 12, 14, 9, 16, 22, 23, 15, 24, 35, 32, 35, 31, 35 |
  36, 41, 23, 29, 14, 43, 36, 45, 48, 44, 33, 51, 46, 37, 42, 23, 23, 22, 18, 20, 23, 20, 20, 21, 22, 23, 23, 25, 25, 21, 34, 36, 33, 27, 34, 35, 41, 41, 36, 46, 13, 10, 16, 9, 13, 34, 33, 25, 31, 28, 11, 10, 14, 18, 5, 21, 22, 20, 18, 24, 16, 20, 18, 21, 18, 48, 45, 45, 43, 37, 23, 24, 20, 26, 22, 10, 13, 9, 12, 12, 25, 27, 26, 26, 23, 6, 9, 0, 9, 7, 17, 18, 15, 17, 15, 10, 15, 9, 14, 10, 12, 17, 17, 9, 18, 32, 29, 31, 27, 33 |
  30, 32, 14, 20, 6, 52, 45, 53, 57, 53, 40, 59, 53, 44, 49, 28, 28, 28, 26, 25, 31, 29, 28, 30, 31, 31, 31, 33, 33, 29, 42, 44, 41, 34, 43, 43, 49, 48, 44, 54, 20, 18, 23, 16, 19, 43, 41, 33, 40, 37, 10, 16, 13, 21, 5, 29, 30, 28, 26, 32, 24, 28, 26, 29, 26, 57, 54, 53, 52, 46, 31, 32, 28, 34, 29, 18, 21, 18, 20, 21, 31, 34, 33, 31, 29, 13, 14, 7, 0, 10, 26, 26, 23, 26, 24, 6, 9, 4, 10, 10, 3, 10, 12, 4, 12, 38, 34, 37, 32, 39 |
  32, 39, 22, 28, 14, 45, 39, 46, 50, 46, 38, 56, 50, 42, 47, 28, 28, 27, 22, 25, 26, 23, 22, 23, 24, 26, 27, 29, 29, 25, 39, 41, 37, 31, 38, 39, 45, 45, 41, 50, 17, 15, 22, 14, 18, 37, 36, 28, 34, 30, 15, 16, 18, 23, 8, 26, 26, 24, 22, 28, 20, 24, 22, 25, 21, 51, 48, 49, 46, 41, 28, 29, 25, 30, 27, 10, 14, 11, 14, 15, 30, 32, 30, 31, 28, 9, 6, 6, 9, 0, 19, 18, 16, 20, 18, 6, 12, 7, 9, 5, 12, 19, 20, 11, 20, 38, 34, 37, 33, 38 |
  49, 57, 40, 45, 31, 26, 21, 28, 31, 28, 26, 41, 35, 30, 34, 24, 22, 19, 12, 22, 8, 7, 3, 6, 5, 10, 13, 12, 14, 11, 24, 27, 22, 18, 21, 24, 31, 28, 26, 34, 13, 12, 16, 14, 16, 18, 19, 11, 16, 12, 25, 18, 28, 23, 22, 14, 13, 11, 11, 14, 8, 10, 9, 11, 7, 33, 30, 31, 28, 23, 16, 15, 15, 16, 17, 9, 6, 9, 6, 8, 20, 22, 18, 25, 21, 13, 14, 17, 26, 19, 0, 4, 5, 3, 8, 25, 31, 25, 28, 23, 29, 33, 32, 26, 33, 28, 27, 28, 27, 27 |
  46, 56, 39, 45, 30, 28, 24, 30, 33, 30, 31, 46, 40, 35, 39, 29, 27, 23, 17, 26, 13, 13, 8, 11, 10, 15, 18, 17, 19, 16, 29, 32, 27, 23, 25, 29, 36, 33, 31, 39, 17, 15, 20, 17, 20, 22, 23, 16, 20, 16, 27, 21, 30, 27, 22, 19, 18, 16, 16, 19, 13, 15, 14, 17, 12, 37, 33, 35, 31, 27, 21, 20, 20, 21, 22, 8, 5, 9, 8, 11, 25, 27, 23, 30, 26, 13, 13, 18, 26, 18, 6, 0, 5, 9, 13, 23, 29, 24, 25, 20, 28, 34, 33, 26, 34, 33, 32, 33, 32, 32 |
  45, 54, 37, 42, 28, 30, 25, 31, 35, 31, 30, 45, 39, 34, 38, 26, 25, 21, 15, 23, 12, 11, 8, 10, 10, 14, 17, 17, 18, 15, 28, 31, 26, 22, 25, 28, 35, 33, 30, 39, 14, 12, 18, 14, 17, 22, 23, 15, 20, 16, 24, 18, 27, 24, 20, 17, 16, 14, 14, 18, 10, 13, 12, 15, 11, 37, 34, 35, 32, 27, 20, 19, 18, 20, 20, 6, 2, 7, 5, 8, 23, 25, 22, 27, 24, 11, 11, 15, 23, 16, 6, 6, 0, 7, 11, 21, 27, 22, 24, 19, 26, 31, 30, 24, 32, 31, 30, 31, 30, 30 |
  50, 58, 40, 46, 31, 27, 20, 28, 31, 27, 24, 39, 33, 28, 32, 22, 20, 16, 10, 19, 6, 5, 3, 4, 5, 8, 10, 10, 12, 8, 22, 25, 20, 16, 19, 22, 29, 27, 24, 32, 11, 11, 14, 13, 15, 18, 17, 9, 15, 11, 24, 17, 27, 22, 22, 12, 10, 9, 9, 12, 6, 7, 7, 9, 5, 32, 29, 29, 27, 21, 14, 13, 12, 14, 15, 11, 7, 9, 7, 7, 17, 20, 16, 23, 19, 13, 15, 17, 26, 20, 6, 9, 8, 0, 7, 25, 32, 26, 29, 24, 29, 33, 31, 26, 33, 26, 25, 26, 25, 25 |
  49, 55, 37, 43, 29, 30, 22, 31, 34, 30, 23, 39, 33, 27, 31, 20, 18, 14, 8, 17, 8, 6, 6, 6, 8, 9, 10, 11, 12, 8, 22, 25, 20, 15, 20, 23, 29, 27, 24, 33, 8, 8, 11, 10, 12, 20, 19, 11, 17, 13, 21, 14, 24, 19, 19, 10, 10, 8, 7, 11, 3, 7, 5, 8, 4, 34, 31, 31, 29, 23, 13, 12, 11, 13, 13, 10, 7, 8, 5, 4, 16, 18, 15, 20, 17, 10, 14, 15, 24, 18, 8, 10, 9, 4, 0, 23, 29, 23, 27, 22, 26, 30, 28, 23, 30, 24, 23, 24, 23, 23 |
  27, 34, 16, 22, 9, 50, 45, 52, 55, 52, 43, 61, 55, 46, 51, 31, 32, 31, 27, 29, 31, 29, 27, 29, 30, 31, 32, 34, 34, 30, 43, 46, 43, 36, 43, 44, 50, 50, 45, 55, 22, 19, 26, 18, 22, 42, 42, 33, 40, 36, 15, 19, 18, 25, 8, 31, 31, 29, 27, 33, 25, 29, 27, 30, 27, 57, 54, 54, 52, 46, 33, 34, 30, 35, 31, 16, 20, 17, 19, 21, 34, 36, 35, 34, 32, 14, 11, 10, 6, 6, 25, 23, 21, 25, 23, 0, 6, 5, 5, 7, 8, 15, 18, 9, 18, 41, 38, 40, 36, 42 |
  22, 28, 12, 17, 7, 56, 51, 58, 61, 58, 48, 66, 60, 51, 57, 36, 36, 36, 33, 33, 37, 35, 33, 35, 36, 37, 38, 40, 40, 36, 49, 51, 48, 42, 49, 50, 56, 55, 51, 61, 27, 25, 31, 23, 27, 49, 48, 39, 46, 42, 18, 23, 20, 30, 13, 36, 37, 34, 33, 39, 31, 35, 33, 36, 32, 63, 60, 60, 58, 52, 38, 39, 35, 41, 37, 22, 26, 23, 25, 27, 39, 42, 40, 39, 37, 20, 17, 15, 9, 12, 31, 29, 27, 32, 29, 10, 0, 11, 8, 11, 8, 14, 19, 12, 18, 46, 42, 45, 40, 47 |
  28, 33, 15, 21, 7, 51, 45, 53, 56, 52, 41, 60, 54, 45, 50, 30, 30, 30, 27, 27, 31, 29, 28, 29, 30, 31, 32, 34, 34, 30, 43, 45, 42, 35, 43, 44, 49, 49, 45, 55, 21, 18, 24, 17, 20, 43, 41, 33, 40, 36, 13, 17, 15, 24, 6, 30, 31, 28, 26, 32, 25, 28, 26, 29, 26, 57, 54, 54, 52, 46, 32, 33, 29, 35, 30, 17, 20, 17, 20, 21, 33, 35, 34, 33, 30, 14, 12, 9, 4, 7, 25, 24, 22, 26, 23, 6, 9, 0, 10, 12, 5, 13, 15, 7, 15, 40, 36, 39, 34, 41 |
  23, 32, 16, 22, 11, 53, 48, 54, 58, 55, 47, 65, 59, 50, 56, 36, 36, 35, 31, 33, 34, 32, 30, 32, 33, 35, 36, 38, 38, 34, 47, 50, 46, 40, 47, 48, 54, 54, 50, 59, 26, 23, 30, 22, 26, 46, 45, 37, 43, 39, 19, 23, 22, 30, 13, 35, 35, 33, 31, 37, 29, 33, 31, 34, 30, 60, 57, 57, 55, 50, 37, 38, 34, 39, 36, 19, 23, 20, 23, 24, 38, 41, 39, 39, 36, 18, 14, 14, 10, 9, 28, 25, 24, 29, 27, 6, 5, 10, 0, 6, 10, 18, 22, 13, 21, 46, 42, 45, 40, 46 |
  28, 37, 20, 26, 13, 48, 43, 49, 53, 50, 42, 60, 54, 46, 51, 32, 32, 31, 27, 30, 29, 27, 25, 27, 28, 30, 31, 33, 33, 29, 43, 45, 42, 36, 42, 44, 50, 49, 45, 54, 22, 19, 26, 18, 22, 40, 40, 32, 38, 34, 18, 20, 21, 27, 10, 30, 30, 28, 26, 32, 24, 28, 26, 29, 25, 55, 52, 52, 50, 44, 32, 33, 29, 34, 31, 14, 17, 15, 18, 20, 34, 36, 34, 35, 32, 13, 9, 10, 10, 5, 23, 20, 19, 24, 22, 6, 6, 11, 6, 0, 12, 19, 22, 13, 22, 42, 38, 41, 37, 42 |
  29, 29, 11, 17, 3, 55, 48, 56, 60, 56, 43, 61, 55, 46, 51, 30, 30, 31, 28, 27, 34, 31, 31, 32, 33, 34, 34, 36, 36, 32, 44, 46, 44, 37, 45, 46, 51, 51, 46, 56, 23, 21, 25, 19, 21, 46, 44, 36, 43, 39, 11, 18, 13, 23, 8, 32, 33, 30, 28, 35, 27, 31, 29, 31, 29, 60, 57, 56, 54, 49, 33, 35, 30, 37, 31, 21, 24, 20, 23, 23, 34, 36, 35, 33, 31, 17, 16, 12, 3, 12, 29, 28, 26, 29, 26, 8, 8, 5, 10, 12, 0, 10, 13, 8, 12, 40, 36, 39, 34, 41 |
  33, 27, 11, 15, 8, 59, 51, 60, 64, 59, 42, 61, 56, 45, 51, 28, 29, 31, 30, 26, 38, 34, 35, 36, 37, 36, 36, 39, 38, 34, 45, 46, 45, 38, 47, 47, 51, 52, 47, 57, 25, 23, 26, 21, 22, 49, 46, 39, 46, 43, 10, 18, 10, 21, 12, 33, 35, 32, 30, 36, 30, 33, 31, 34, 32, 62, 59, 58, 57, 51, 34, 37, 31, 38, 32, 26, 29, 25, 28, 27, 34, 36, 36, 31, 30, 21, 22, 17, 10, 19, 33, 34, 31, 33, 30, 15, 14, 13, 18, 19, 8, 0, 5, 10, 4, 39, 35, 37, 32, 41 |
  39, 32, 17, 21, 12, 57, 47, 58, 61, 57, 38, 56, 51, 40, 46, 23, 25, 26, 27, 22, 35, 32, 33, 34, 35, 33, 32, 35, 34, 31, 40, 42, 41, 34, 44, 42, 47, 48, 42, 53, 21, 21, 22, 18, 19, 46, 43, 36, 43, 40, 7, 15, 5, 17, 13, 29, 31, 29, 27, 33, 27, 30, 28, 30, 29, 58, 56, 54, 54, 48, 30, 33, 28, 35, 28, 26, 29, 24, 26, 25, 29, 31, 32, 26, 26, 20, 23, 17, 12, 20, 32, 33, 30, 31, 28, 18, 19, 15, 22, 22, 11, 8, 0, 13, 8, 34, 30, 32, 27, 36 |
  33, 33, 15, 21, 7, 52, 44, 53, 57, 53, 38, 57, 51, 41, 47, 25, 26, 26, 24, 23, 31, 28, 28, 29, 30, 30, 30, 32, 32, 28, 40, 42, 40, 33, 41, 41, 47, 47, 42, 52, 19, 17, 21, 15, 17, 42, 40, 32, 39, 36, 7, 13, 9, 19, 5, 28, 29, 26, 24, 31, 24, 27, 25, 28, 25, 56, 53, 52, 51, 45, 29, 31, 26, 33, 27, 19, 22, 18, 20, 20, 29, 32, 31, 28, 26, 14, 15, 9, 4, 11, 26, 26, 24, 26, 23, 9, 12, 7, 13, 13, 7, 12, 15, 0, 14, 36, 32, 34, 29, 37 |
  37, 29, 15, 18, 11, 59, 49, 60, 63, 59, 40, 58, 53, 43, 48, 25, 27, 29, 29, 24, 37, 34, 35, 35, 37, 35, 34, 37, 37, 33, 43, 44, 44, 36, 46, 45, 49, 50, 45, 55, 23, 23, 24, 20, 21, 48, 45, 38, 45, 42, 9, 17, 7, 19, 13, 32, 33, 31, 29, 35, 29, 32, 30, 32, 31, 61, 58, 56, 56, 50, 33, 35, 30, 37, 30, 27, 30, 26, 28, 27, 32, 34, 34, 29, 28, 22, 24, 18, 12, 20, 33, 34, 32, 33, 30, 18, 18, 15, 21, 22, 10, 7, 1, 12, 0, 37, 32, 35, 29, 38 |
  68, 65, 50, 54, 42, 39, 25, 38, 40, 35, 6, 22, 18, 7, 12, 12, 11, 11, 17, 14, 23, 21, 26, 24, 26, 19, 16, 18, 16, 18, 11, 10, 15, 11, 19, 14, 15, 18, 12, 21, 21, 24, 16, 24, 20, 26, 20, 20, 24, 24, 30, 23, 30, 18, 34, 15, 16, 17, 18, 15, 21, 19, 19, 17, 21, 31, 30, 26, 28, 23, 12, 14, 14, 14, 12, 32, 31, 30, 28, 25, 9, 6, 10, 8, 10, 29, 35, 32, 38, 38, 28, 33, 31, 26, 24, 41, 46, 40, 46, 42, 40, 39, 34, 36, 37, 0, 5, 3, 9, 3 |
  64, 61, 45, 50, 38, 41, 28, 41, 43, 37, 10, 27, 23, 11, 17, 7, 7, 9, 16, 10, 23, 21, 25, 24, 26, 19, 16, 19, 17, 17, 14, 14, 18, 12, 21, 17, 19, 22, 16, 25, 18, 21, 13, 21, 17, 28, 23, 21, 25, 25, 26, 20, 26, 14, 30, 14, 16, 16, 17, 15, 20, 18, 18, 16, 20, 35, 34, 30, 31, 26, 12, 14, 13, 15, 10, 30, 29, 27, 26, 23, 8, 6, 11, 4, 7, 26, 32, 29, 34, 34, 27, 32, 30, 25, 23, 38, 42, 36, 42, 38, 36, 35, 30, 32, 32, 5, 0, 3, 4, 7 |
  66, 63, 48, 52, 41, 40, 27, 40, 42, 37, 9, 25, 20, 9, 14, 10, 9, 11, 17, 12, 24, 22, 27, 25, 27, 20, 17, 20, 17, 18, 13, 13, 17, 12, 21, 16, 17, 20, 14, 23, 20, 23, 16, 23, 19, 28, 22, 21, 26, 25, 29, 22, 28, 17, 33, 15, 17, 18, 18, 16, 22, 19, 20, 17, 22, 33, 33, 28, 30, 25, 13, 15, 14, 15, 12, 32, 31, 29, 28, 24, 9, 7, 11, 7, 9, 29, 35, 31, 37, 37, 28, 33, 31, 26, 24, 40, 45, 39, 45, 41, 39, 37, 32, 34, 35, 3, 3, 0, 6, 6 |
  62, 58, 42, 47, 35, 43, 30, 43, 46, 40, 14, 31, 26, 15, 20, 5, 6, 9, 16, 8, 24, 22, 26, 25, 27, 21, 18, 21, 19, 19, 18, 18, 21, 15, 24, 20, 23, 25, 19, 29, 17, 20, 13, 20, 15, 31, 25, 23, 28, 27, 23, 18, 23, 11, 28, 15, 17, 17, 17, 17, 20, 19, 19, 17, 21, 38, 37, 33, 34, 29, 13, 16, 13, 17, 11, 30, 29, 27, 26, 22, 10, 9, 13, 3, 7, 25, 31, 27, 32, 33, 27, 32, 30, 25, 23, 36, 40, 34, 40, 37, 34, 32, 27, 29, 29, 9, 4, 6, 0, 11 |
  68, 67, 51, 56, 43, 36, 23, 35, 38, 32, 3, 21, 16, 5, 10, 14, 12, 12, 17, 15, 21, 20, 25, 22, 24, 18, 15, 17, 14, 17, 8, 8, 12, 9, 16, 11, 12, 15, 9, 18, 21, 24, 17, 24, 21, 24, 18, 18, 21, 22, 32, 24, 32, 20, 35, 14, 15, 16, 18, 14, 21, 18, 19, 16, 20, 28, 27, 23, 25, 20, 11, 12, 14, 12, 11, 32, 30, 29, 28, 24, 9, 6, 9, 10, 11, 29, 35, 33, 39, 38, 27, 32, 30, 25, 23, 42, 47, 41, 46, 42, 41, 41, 36, 37, 38, 3, 7, 6, 11, 0 |];

temps_trajet_c2 = 
[|
  0, 10, 13, 11, 15, 58, 56, 60, 62, 61, 55, 70, 65, 58, 62, 46, 46, 46, 43, 44, 45, 44, 42, 43, 43, 46, 47, 48, 48, 45, 56, 58, 55, 50, 55, 57, 61, 61, 58, 65, 39, 37, 42, 36, 39, 54, 54, 47, 52, 49, 31, 36, 33, 41, 27, 46, 46, 44, 43, 48, 41, 44, 42, 45, 42, 66, 63, 64, 61, 57, 47, 48, 45, 49, 46, 32, 35, 34, 36, 37, 48, 50, 49, 49, 47, 32, 29, 29, 24, 25, 39, 37, 36, 40, 39, 22, 18, 23, 18, 22, 23, 27, 31, 27, 30, 54, 51, 53, 49, 55 |
  11, 0, 12, 7, 15, 67, 61, 68, 71, 68, 55, 70, 66, 57, 62, 43, 45, 46, 45, 42, 50, 48, 48, 49, 50, 50, 50, 52, 51, 48, 57, 58, 57, 52, 59, 59, 62, 63, 59, 67, 41, 39, 42, 38, 39, 60, 58, 52, 57, 54, 29, 36, 29, 38, 29, 48, 49, 47, 45, 50, 45, 47, 46, 48, 46, 71, 68, 68, 66, 62, 49, 50, 46, 52, 47, 39, 42, 39, 41, 42, 48, 50, 50, 46, 46, 37, 35, 33, 26, 32, 46, 45, 44, 46, 44, 27, 23, 26, 26, 30, 23, 22, 25, 26, 24, 52, 49, 51, 46, 54 |
  12, 10, 0, 4, 8, 53, 47, 54, 56, 53, 42, 57, 52, 44, 49, 31, 32, 33, 31, 29, 36, 34, 34, 35, 35, 36, 36, 38, 37, 34, 44, 45, 44, 38, 45, 45, 49, 49, 45, 53, 27, 25, 29, 24, 25, 45, 44, 38, 43, 40, 16, 22, 16, 26, 15, 34, 35, 33, 31, 36, 30, 33, 32, 34, 32, 56, 54, 54, 52, 48, 35, 36, 33, 38, 33, 25, 28, 25, 27, 27, 35, 37, 37, 34, 32, 22, 21, 18, 11, 18, 32, 31, 29, 32, 30, 13, 9, 12, 13, 16, 9, 9, 13, 12, 12, 40, 36, 38, 34, 41 |
  10, 7, 7, 0, 10, 57, 51, 58, 61, 58, 46, 61, 57, 48, 53, 35, 36, 37, 36, 33, 41, 38, 38, 39, 40, 40, 40, 42, 42, 39, 48, 49, 48, 42, 49, 49, 53, 54, 49, 58, 31, 30, 33, 28, 29, 50, 48, 42, 48, 45, 20, 26, 20, 29, 20, 38, 39, 37, 36, 41, 35, 38, 36, 38, 36, 61, 59, 58, 57, 52, 39, 41, 37, 42, 38, 30, 33, 30, 32, 32, 39, 41, 41, 37, 36, 27, 26, 23, 16, 22, 37, 36, 34, 37, 35, 18, 14, 17, 17, 21, 14, 12, 17, 17, 15, 44, 40, 42, 37, 45 |
  15, 15, 6, 10, 0, 46, 40, 47, 50, 47, 36, 50, 46, 38, 43, 25, 26, 26, 25, 23, 29, 27, 27, 28, 29, 29, 29, 31, 31, 28, 37, 39, 37, 31, 38, 38, 43, 43, 39, 47, 20, 18, 22, 17, 19, 38, 37, 31, 36, 33, 10, 16, 11, 20, 8, 27, 28, 26, 25, 30, 24, 27, 25, 27, 25, 50, 47, 47, 45, 41, 28, 30, 26, 31, 27, 18, 21, 18, 20, 21, 29, 31, 30, 28, 26, 15, 15, 11, 5, 11, 25, 25, 23, 25, 23, 7, 6, 6, 9, 11, 2, 6, 10, 6, 9, 34, 31, 33, 28, 35 |
  58, 67, 53, 57, 46, 0, 13, 3, 5, 7, 27, 29, 26, 29, 29, 34, 32, 29, 25, 33, 18, 21, 20, 19, 18, 20, 22, 19, 20, 22, 23, 25, 20, 23, 17, 21, 24, 20, 23, 23, 29, 29, 30, 31, 32, 11, 15, 18, 13, 14, 41, 34, 42, 36, 39, 24, 23, 24, 25, 22, 24, 22, 24, 23, 23, 14, 11, 16, 12, 13, 25, 22, 26, 21, 27, 28, 25, 28, 26, 26, 28, 28, 25, 33, 31, 31, 32, 35, 42, 36, 21, 22, 24, 21, 24, 40, 45, 41, 42, 38, 44, 47, 46, 42, 47, 31, 33, 32, 35, 29 |
  56, 61, 47, 51, 40, 8, 0, 10, 12, 12, 16, 21, 16, 18, 19, 24, 22, 19, 17, 23, 11, 14, 14, 13, 13, 12, 13, 10, 11, 13, 12, 14, 9, 13, 6, 10, 14, 10, 12, 14, 21, 22, 21, 24, 24, 3, 5, 10, 4, 7, 33, 26, 34, 27, 32, 15, 14, 15, 17, 12, 17, 14, 16, 14, 15, 11, 8, 9, 6, 3, 15, 13, 17, 12, 17, 24, 21, 23, 21, 20, 17, 18, 15, 23, 21, 25, 28, 29, 36, 31, 17, 20, 20, 16, 18, 36, 41, 36, 38, 34, 38, 41, 38, 35, 40, 20, 22, 22, 24, 18 |
  60, 68, 54, 58, 47, 4, 15, 0, 4, 9, 26, 28, 24, 28, 28, 34, 32, 29, 26, 33, 19, 21, 21, 20, 19, 21, 22, 19, 21, 22, 22, 24, 19, 23, 16, 20, 23, 19, 22, 22, 30, 30, 30, 32, 32, 11, 15, 18, 13, 15, 41, 35, 43, 37, 40, 25, 23, 24, 25, 22, 25, 23, 24, 23, 23, 12, 10, 15, 11, 13, 25, 23, 26, 22, 27, 29, 26, 29, 27, 27, 28, 28, 25, 33, 31, 32, 33, 36, 43, 37, 22, 24, 25, 22, 25, 42, 46, 42, 44, 40, 45, 48, 46, 43, 48, 31, 33, 32, 35, 28 |
  62, 71, 56, 61, 50, 5, 16, 4, 0, 9, 28, 28, 25, 30, 29, 37, 34, 31, 28, 36, 22, 24, 23, 23, 22, 23, 25, 22, 23, 25, 24, 25, 21, 26, 18, 22, 24, 20, 24, 22, 32, 33, 33, 35, 35, 13, 17, 21, 15, 18, 44, 38, 46, 39, 42, 27, 25, 27, 28, 24, 28, 25, 27, 26, 26, 12, 10, 15, 11, 14, 27, 25, 29, 24, 30, 32, 29, 32, 30, 30, 30, 30, 27, 35, 33, 35, 36, 39, 46, 40, 25, 27, 28, 25, 27, 45, 49, 45, 47, 42, 48, 51, 49, 45, 51, 32, 34, 34, 37, 30 |
  61, 68, 53, 58, 47, 9, 16, 10, 12, 0, 23, 24, 21, 25, 25, 32, 30, 27, 24, 31, 18, 21, 20, 19, 19, 19, 20, 18, 19, 21, 20, 21, 16, 21, 13, 17, 20, 16, 19, 18, 29, 29, 29, 31, 31, 9, 12, 17, 12, 14, 40, 34, 42, 35, 39, 23, 21, 23, 24, 20, 24, 22, 23, 22, 22, 9, 6, 11, 7, 10, 23, 21, 25, 19, 25, 29, 26, 29, 27, 27, 25, 26, 23, 31, 29, 32, 33, 36, 43, 37, 22, 24, 25, 22, 24, 42, 47, 42, 44, 40, 45, 48, 45, 42, 47, 28, 30, 30, 32, 26 |
  55, 55, 42, 46, 36, 27, 16, 26, 28, 23, 0, 14, 11, 5, 8, 13, 11, 10, 13, 13, 16, 15, 19, 17, 18, 13, 11, 12, 11, 13, 4, 4, 8, 7, 11, 7, 8, 10, 5, 13, 17, 19, 14, 20, 17, 17, 12, 14, 15, 16, 27, 20, 27, 17, 29, 11, 11, 13, 14, 10, 16, 14, 15, 12, 16, 20, 20, 16, 18, 14, 9, 9, 11, 9, 9, 26, 24, 23, 22, 19, 8, 6, 7, 10, 10, 24, 28, 27, 32, 31, 21, 25, 24, 19, 18, 34, 38, 33, 38, 34, 34, 34, 30, 31, 32, 5, 8, 7, 11, 3 |
  70, 70, 57, 61, 50, 29, 21, 28, 28, 24, 14, 0, 6, 9, 5, 27, 26, 25, 27, 28, 27, 28, 31, 29, 29, 25, 24, 23, 23, 26, 14, 12, 16, 20, 17, 14, 9, 11, 13, 7, 32, 34, 29, 35, 32, 23, 19, 25, 23, 25, 41, 35, 41, 32, 43, 25, 24, 26, 28, 23, 30, 27, 28, 26, 29, 16, 19, 14, 18, 18, 23, 22, 25, 21, 24, 39, 37, 37, 35, 33, 22, 20, 21, 24, 25, 38, 42, 41, 47, 45, 33, 37, 36, 31, 32, 49, 53, 48, 52, 48, 49, 49, 45, 45, 47, 18, 22, 20, 25, 17 |
  65, 66, 52, 57, 46, 26, 16, 24, 25, 21, 12, 5, 0, 9, 7, 23, 22, 20, 23, 24, 22, 23, 26, 24, 25, 20, 19, 19, 18, 21, 10, 8, 11, 16, 13, 9, 4, 7, 8, 3, 27, 29, 24, 30, 28, 18, 15, 20, 18, 20, 37, 31, 37, 28, 39, 20, 20, 22, 23, 18, 25, 22, 23, 21, 24, 14, 16, 11, 14, 14, 18, 18, 21, 16, 20, 34, 32, 32, 30, 28, 18, 16, 17, 20, 21, 33, 37, 37, 43, 40, 28, 32, 32, 27, 27, 44, 48, 43, 47, 43, 44, 45, 41, 41, 43, 14, 18, 16, 21, 13 |
  58, 57, 44, 48, 38, 29, 18, 28, 30, 25, 5, 10, 8, 0, 3, 14, 13, 13, 16, 16, 19, 19, 22, 20, 22, 16, 14, 15, 14, 16, 6, 5, 10, 10, 13, 8, 7, 10, 6, 12, 20, 22, 17, 23, 20, 19, 15, 17, 18, 19, 29, 23, 29, 20, 32, 14, 14, 16, 17, 13, 20, 17, 18, 15, 19, 21, 21, 17, 19, 16, 12, 12, 14, 12, 12, 29, 27, 27, 25, 23, 10, 8, 10, 12, 12, 27, 31, 30, 35, 34, 24, 28, 27, 22, 22, 37, 41, 36, 40, 37, 37, 36, 32, 33, 34, 5, 9, 7, 12, 4 |
  62, 62, 49, 53, 43, 29, 19, 28, 29, 25, 8, 7, 6, 4, 0, 19, 17, 17, 20, 20, 22, 22, 25, 23, 24, 19, 18, 18, 17, 19, 8, 6, 11, 13, 14, 9, 5, 9, 7, 9, 24, 26, 21, 27, 25, 20, 16, 19, 19, 21, 33, 27, 33, 24, 36, 18, 18, 20, 21, 17, 23, 20, 21, 19, 22, 19, 20, 15, 18, 16, 16, 16, 18, 15, 17, 32, 30, 30, 29, 26, 15, 13, 14, 16, 17, 31, 35, 34, 39, 38, 27, 31, 30, 25, 25, 41, 46, 40, 45, 41, 41, 41, 37, 38, 39, 10, 13, 12, 16, 8 |
  46, 43, 31, 35, 25, 34, 24, 34, 37, 32, 13, 27, 23, 14, 19, 0, 6, 13, 24, 9, 18, 16, 19, 18, 20, 15, 13, 16, 14, 13, 15, 16, 17, 12, 20, 17, 20, 22, 17, 25, 11, 13, 7, 12, 9, 24, 20, 17, 22, 21, 16, 11, 15, 6, 19, 10, 12, 12, 12, 13, 14, 13, 13, 12, 14, 31, 30, 27, 28, 23, 10, 12, 9, 13, 8, 21, 20, 18, 18, 15, 7, 8, 10, 3, 4, 17, 22, 18, 22, 23, 20, 23, 21, 18, 16, 25, 29, 24, 29, 26, 24, 23, 18, 20, 20, 10, 6, 8, 4, 11 |
  46, 45, 32, 36, 26, 32, 22, 32, 34, 30, 11, 26, 22, 13, 17, 6, 0, 8, 18, 5, 16, 14, 17, 16, 18, 13, 11, 14, 12, 11, 14, 14, 15, 9, 18, 15, 18, 20, 15, 23, 10, 12, 6, 12, 9, 22, 18, 15, 20, 18, 16, 11, 16, 7, 19, 8, 10, 10, 10, 11, 12, 12, 11, 10, 13, 29, 28, 25, 26, 21, 8, 10, 7, 11, 5, 20, 19, 17, 17, 14, 5, 6, 8, 3, 2, 16, 21, 18, 23, 23, 18, 22, 20, 16, 14, 25, 29, 24, 29, 26, 24, 24, 20, 21, 22, 9, 5, 7, 5, 10 |
  46, 46, 33, 37, 26, 29, 19, 29, 31, 27, 10, 25, 20, 13, 17, 12, 8, 0, 11, 6, 12, 10, 14, 13, 14, 10, 7, 10, 9, 8, 12, 13, 13, 7, 15, 13, 17, 18, 13, 21, 8, 10, 5, 11, 8, 19, 15, 11, 16, 15, 17, 11, 18, 9, 19, 5, 7, 7, 7, 7, 9, 8, 8, 7, 10, 27, 25, 23, 23, 18, 4, 7, 4, 8, 2, 18, 17, 15, 14, 11, 3, 5, 5, 6, 3, 15, 20, 17, 23, 22, 15, 19, 17, 13, 11, 25, 29, 24, 28, 25, 25, 25, 21, 21, 23, 9, 7, 9, 8, 9 |
  43, 45, 31, 36, 25, 25, 17, 26, 28, 24, 13, 27, 23, 16, 20, 23, 19, 11, 0, 17, 8, 6, 9, 8, 10, 6, 5, 7, 7, 4, 13, 15, 13, 8, 14, 14, 19, 19, 15, 23, 5, 7, 5, 8, 7, 16, 13, 8, 13, 11, 17, 10, 18, 11, 17, 3, 4, 2, 1, 5, 4, 4, 3, 3, 4, 26, 24, 23, 22, 17, 5, 6, 3, 7, 5, 13, 11, 11, 9, 7, 7, 9, 7, 11, 8, 11, 16, 15, 21, 18, 10, 14, 12, 8, 6, 22, 27, 21, 25, 21, 23, 24, 22, 20, 23, 14, 13, 14, 13, 13 |
  44, 42, 29, 33, 23, 33, 23, 33, 36, 31, 13, 28, 24, 16, 20, 8, 4, 7, 16, 0, 16, 14, 17, 16, 18, 14, 12, 14, 13, 12, 16, 17, 17, 11, 19, 18, 21, 22, 17, 25, 8, 10, 5, 10, 7, 23, 19, 15, 21, 19, 14, 8, 14, 5, 17, 9, 11, 10, 10, 12, 12, 12, 11, 11, 12, 31, 30, 27, 28, 23, 9, 11, 7, 12, 6, 18, 18, 16, 15, 13, 7, 8, 9, 5, 4, 14, 19, 16, 20, 20, 17, 21, 19, 16, 14, 23, 27, 22, 27, 24, 22, 21, 17, 18, 19, 11, 8, 10, 6, 12 |
  45, 50, 36, 41, 29, 18, 11, 19, 22, 18, 16, 27, 22, 19, 22, 18, 16, 12, 8, 16, 0, 5, 6, 3, 5, 3, 6, 4, 6, 5, 14, 16, 12, 10, 11, 14, 19, 17, 15, 22, 11, 12, 12, 14, 14, 10, 9, 3, 7, 5, 23, 17, 25, 19, 22, 8, 6, 6, 7, 6, 6, 5, 6, 6, 5, 21, 19, 19, 17, 13, 9, 7, 9, 8, 11, 13, 10, 12, 10, 9, 12, 14, 10, 17, 15, 14, 17, 18, 25, 21, 6, 10, 10, 5, 7, 25, 30, 25, 28, 24, 27, 30, 28, 25, 30, 18, 18, 19, 19, 17 |
  44, 48, 34, 38, 27, 21, 14, 21, 24, 21, 15, 28, 23, 19, 22, 16, 14, 10, 6, 14, 5, 0, 7, 4, 7, 3, 5, 5, 6, 3, 14, 16, 12, 9, 12, 14, 19, 18, 16, 23, 9, 9, 10, 11, 11, 12, 11, 4, 10, 7, 20, 14, 22, 16, 19, 6, 5, 4, 5, 6, 4, 3, 4, 4, 2, 23, 21, 21, 19, 14, 8, 7, 7, 7, 9, 12, 9, 10, 8, 7, 11, 13, 9, 15, 13, 12, 15, 16, 23, 19, 6, 10, 9, 4, 5, 23, 28, 23, 26, 22, 25, 28, 25, 22, 27, 17, 17, 18, 18, 16 |
  42, 48, 34, 38, 27, 20, 14, 21, 23, 20, 19, 31, 26, 22, 25, 19, 17, 14, 9, 17, 7, 6, 0, 5, 4, 6, 9, 8, 9, 7, 17, 20, 15, 13, 14, 17, 22, 21, 19, 25, 11, 11, 13, 12, 14, 13, 13, 7, 10, 8, 21, 16, 23, 19, 19, 10, 9, 8, 8, 9, 6, 6, 7, 8, 5, 24, 22, 22, 20, 16, 12, 10, 11, 11, 13, 10, 7, 9, 7, 7, 15, 16, 13, 19, 16, 12, 14, 16, 23, 17, 3, 7, 6, 2, 5, 22, 27, 22, 25, 20, 25, 28, 27, 23, 28, 21, 20, 21, 21, 20 |
  43, 49, 35, 39, 28, 19, 13, 20, 23, 19, 17, 29, 24, 20, 23, 18, 16, 13, 8, 16, 2, 4, 4, 0, 4, 4, 7, 6, 7, 5, 15, 18, 13, 11, 13, 15, 20, 19, 17, 23, 11, 11, 12, 13, 13, 11, 11, 5, 9, 6, 22, 16, 24, 18, 20, 8, 7, 6, 7, 8, 6, 5, 6, 6, 4, 23, 20, 21, 19, 14, 10, 8, 9, 9, 11, 12, 9, 10, 8, 8, 13, 15, 11, 18, 15, 13, 15, 17, 24, 19, 5, 9, 8, 3, 5, 23, 28, 23, 26, 22, 26, 29, 27, 23, 28, 19, 19, 20, 20, 18 |
  43, 50, 35, 40, 29, 18, 13, 19, 22, 19, 18, 29, 25, 22, 24, 20, 18, 14, 10, 18, 4, 8, 4, 4, 0, 6, 8, 7, 8, 7, 17, 19, 14, 12, 13, 16, 21, 19, 18, 24, 12, 12, 14, 14, 15, 11, 11, 6, 9, 6, 23, 17, 25, 20, 21, 10, 9, 8, 9, 9, 7, 7, 7, 8, 6, 23, 20, 21, 18, 14, 12, 10, 11, 10, 13, 12, 9, 11, 9, 9, 15, 16, 13, 20, 17, 14, 16, 18, 25, 19, 4, 8, 8, 4, 6, 24, 29, 24, 26, 22, 27, 30, 28, 24, 30, 21, 21, 21, 22, 20 |
  46, 50, 36, 40, 29, 20, 12, 21, 23, 19, 13, 25, 20, 16, 19, 15, 13, 10, 6, 14, 3, 3, 6, 4, 6, 0, 6, 4, 6, 8, 12, 14, 10, 7, 10, 12, 17, 15, 13, 20, 10, 11, 10, 13, 12, 11, 9, 3, 8, 6, 22, 15, 23, 17, 21, 5, 3, 4, 5, 4, 6, 3, 5, 3, 4, 21, 19, 19, 17, 12, 6, 5, 7, 5, 8, 14, 12, 13, 11, 9, 9, 11, 7, 15, 12, 14, 18, 18, 25, 21, 8, 12, 12, 7, 7, 25, 30, 25, 28, 24, 27, 29, 27, 24, 28, 15, 15, 16, 17, 14 |
  47, 50, 36, 40, 29, 22, 13, 22, 25, 20, 11, 24, 19, 14, 18, 13, 11, 7, 5, 12, 6, 5, 9, 7, 8, 5, 0, 6, 6, 10, 10, 12, 9, 5, 10, 11, 16, 15, 12, 19, 10, 11, 9, 13, 11, 12, 9, 4, 10, 8, 21, 14, 22, 15, 21, 3, 1, 3, 5, 1, 6, 3, 5, 2, 5, 22, 19, 18, 18, 13, 4, 2, 5, 3, 6, 16, 13, 14, 12, 10, 7, 9, 5, 12, 10, 15, 19, 19, 25, 22, 10, 15, 13, 8, 8, 26, 30, 25, 29, 25, 27, 29, 26, 24, 28, 13, 13, 14, 14, 12 |
  48, 52, 38, 42, 31, 19, 10, 19, 22, 18, 12, 23, 19, 15, 18, 16, 14, 10, 7, 14, 4, 5, 8, 6, 7, 3, 6, 0, 4, 9, 10, 12, 8, 6, 8, 10, 15, 14, 12, 18, 12, 13, 11, 15, 14, 9, 7, 2, 7, 5, 24, 17, 25, 18, 23, 6, 4, 6, 7, 3, 8, 5, 6, 5, 6, 19, 17, 17, 15, 10, 7, 4, 8, 4, 9, 16, 14, 15, 13, 11, 10, 11, 7, 15, 12, 16, 20, 20, 27, 23, 10, 14, 13, 8, 9, 27, 32, 27, 30, 26, 29, 31, 28, 26, 30, 15, 15, 16, 17, 13 |
  48, 51, 37, 42, 31, 20, 11, 21, 23, 19, 11, 23, 18, 14, 17, 14, 12, 9, 7, 13, 6, 6, 9, 7, 8, 7, 5, 5, 0, 11, 9, 11, 7, 5, 8, 9, 14, 13, 10, 18, 11, 13, 10, 14, 13, 10, 7, 4, 8, 7, 23, 16, 24, 17, 23, 5, 3, 5, 7, 2, 8, 5, 6, 4, 7, 20, 18, 17, 16, 11, 5, 3, 6, 2, 7, 17, 15, 15, 13, 11, 8, 9, 5, 13, 11, 16, 20, 20, 27, 23, 11, 15, 14, 9, 10, 27, 32, 27, 30, 27, 29, 31, 28, 26, 29, 13, 14, 14, 15, 12 |
  45, 48, 34, 39, 28, 22, 13, 22, 25, 21, 13, 26, 21, 16, 19, 13, 11, 8, 4, 12, 5, 3, 7, 5, 7, 5, 7, 6, 4, 0, 12, 14, 10, 6, 11, 12, 17, 16, 13, 21, 8, 10, 8, 11, 11, 13, 10, 4, 10, 8, 20, 13, 21, 15, 20, 3, 2, 2, 4, 3, 5, 2, 3, 1, 4, 23, 20, 20, 19, 14, 5, 4, 5, 5, 7, 14, 12, 12, 10, 8, 8, 10, 6, 13, 10, 13, 17, 17, 24, 20, 9, 13, 12, 7, 7, 24, 29, 24, 27, 23, 26, 28, 25, 23, 27, 14, 14, 15, 15, 13 |
  56, 57, 44, 48, 37, 23, 12, 22, 24, 20, 4, 14, 10, 6, 8, 15, 14, 12, 13, 16, 14, 14, 17, 15, 17, 12, 10, 10, 9, 12, 0, 5, 4, 9, 8, 3, 6, 7, 2, 10, 18, 20, 16, 21, 19, 13, 9, 11, 12, 13, 28, 22, 29, 20, 30, 11, 10, 12, 14, 9, 16, 13, 14, 12, 15, 17, 16, 13, 14, 10, 9, 8, 12, 7, 11, 25, 23, 23, 21, 19, 9, 8, 7, 13, 13, 24, 28, 27, 33, 31, 19, 24, 23, 18, 18, 35, 39, 34, 38, 34, 35, 36, 32, 32, 34, 9, 12, 11, 14, 7 |
  58, 58, 45, 49, 39, 25, 14, 24, 25, 21, 4, 12, 8, 5, 6, 16, 14, 13, 15, 17, 16, 16, 20, 18, 19, 14, 12, 12, 11, 14, 9, 0, 9, 14, 14, 4, 4, 7, 2, 9, 20, 22, 17, 23, 20, 15, 11, 14, 14, 15, 30, 23, 30, 21, 31, 13, 13, 15, 16, 11, 18, 15, 16, 14, 17, 17, 17, 13, 15, 12, 11, 11, 13, 10, 12, 27, 25, 25, 24, 21, 10, 9, 9, 14, 13, 26, 30, 29, 35, 33, 22, 26, 25, 20, 20, 37, 41, 36, 40, 36, 37, 37, 34, 34, 35, 8, 12, 10, 14, 6 |
  55, 57, 44, 48, 37, 20, 9, 19, 21, 16, 8, 16, 11, 10, 11, 17, 15, 13, 13, 17, 12, 12, 15, 13, 14, 10, 9, 8, 7, 10, 6, 11, 0, 10, 9, 3, 8, 6, 5, 11, 18, 19, 16, 21, 19, 10, 5, 9, 9, 10, 29, 22, 30, 21, 30, 10, 10, 12, 13, 8, 15, 12, 13, 11, 14, 15, 13, 11, 11, 7, 9, 8, 12, 6, 11, 24, 21, 22, 20, 18, 10, 10, 8, 15, 14, 23, 27, 27, 33, 30, 17, 21, 21, 16, 16, 34, 39, 34, 37, 33, 35, 36, 33, 32, 35, 12, 14, 14, 17, 10 |
  50, 52, 38, 42, 31, 23, 13, 23, 26, 21, 7, 20, 16, 10, 13, 12, 9, 7, 8, 11, 10, 9, 13, 11, 12, 7, 5, 6, 5, 6, 9, 14, 10, 0, 11, 7, 12, 12, 8, 16, 12, 14, 10, 15, 13, 13, 9, 8, 11, 11, 23, 16, 24, 15, 24, 5, 5, 7, 8, 4, 10, 8, 9, 6, 10, 20, 19, 17, 17, 12, 3, 3, 6, 3, 5, 20, 18, 18, 16, 13, 5, 5, 2, 10, 8, 18, 23, 22, 28, 25, 15, 19, 18, 13, 12, 29, 34, 28, 32, 29, 30, 31, 27, 26, 29, 9, 10, 10, 12, 8 |
  55, 59, 45, 49, 38, 17, 6, 16, 18, 13, 11, 17, 13, 13, 14, 20, 18, 15, 14, 19, 11, 12, 14, 13, 13, 10, 10, 8, 8, 11, 10, 14, 7, 15, 0, 5, 10, 7, 7, 11, 19, 20, 18, 22, 20, 7, 3, 8, 6, 8, 30, 24, 31, 23, 31, 12, 11, 12, 14, 9, 15, 12, 14, 11, 14, 12, 11, 9, 9, 4, 11, 9, 13, 8, 13, 23, 21, 22, 20, 18, 13, 13, 10, 18, 16, 24, 27, 28, 34, 30, 17, 21, 20, 15, 16, 35, 39, 34, 38, 34, 36, 38, 35, 33, 37, 15, 17, 17, 20, 13 |
  57, 59, 45, 49, 38, 21, 10, 20, 22, 17, 7, 14, 9, 8, 9, 17, 15, 13, 14, 18, 14, 14, 17, 15, 16, 12, 11, 10, 9, 12, 3, 4, 3, 7, 5, 0, 8, 10, 5, 14, 19, 21, 17, 22, 20, 12, 7, 11, 11, 12, 30, 23, 30, 22, 31, 12, 11, 13, 15, 10, 16, 13, 15, 12, 15, 14, 14, 11, 12, 8, 10, 9, 13, 8, 12, 25, 23, 24, 22, 20, 11, 10, 9, 15, 14, 25, 29, 28, 35, 32, 19, 23, 23, 18, 18, 36, 40, 35, 39, 35, 37, 37, 34, 33, 36, 11, 14, 13, 16, 9 |
  61, 62, 49, 53, 43, 24, 14, 23, 24, 20, 8, 9, 4, 7, 5, 20, 18, 17, 19, 21, 19, 19, 22, 20, 21, 17, 16, 15, 14, 17, 6, 4, 8, 12, 10, 7, 0, 7, 7, 7, 23, 25, 21, 27, 24, 16, 12, 16, 15, 17, 34, 27, 34, 25, 35, 16, 16, 18, 19, 15, 21, 18, 20, 17, 20, 14, 15, 10, 13, 11, 15, 14, 17, 13, 16, 31, 28, 29, 27, 25, 14, 13, 13, 17, 17, 30, 34, 33, 39, 37, 25, 29, 28, 23, 23, 40, 45, 40, 44, 40, 41, 41, 38, 37, 39, 12, 15, 14, 18, 10 |
  61, 63, 49, 54, 43, 20, 10, 19, 20, 16, 10, 11, 7, 10, 9, 22, 20, 18, 19, 22, 17, 18, 21, 19, 19, 15, 15, 14, 13, 16, 7, 7, 6, 12, 7, 8, 9, 0, 9, 7, 23, 25, 21, 26, 25, 12, 9, 14, 12, 15, 34, 28, 35, 26, 35, 16, 15, 17, 19, 14, 20, 17, 19, 16, 19, 11, 11, 7, 9, 8, 15, 13, 17, 12, 17, 29, 27, 28, 26, 24, 15, 14, 13, 19, 19, 29, 33, 33, 39, 36, 23, 27, 26, 21, 22, 40, 45, 39, 43, 39, 41, 42, 38, 38, 40, 14, 18, 16, 20, 12 |
  58, 59, 45, 49, 39, 23, 12, 22, 24, 19, 5, 13, 8, 6, 7, 17, 15, 13, 15, 17, 15, 16, 19, 17, 18, 13, 12, 12, 10, 13, 2, 2, 5, 8, 7, 7, 6, 10, 0, 13, 20, 22, 17, 23, 20, 14, 9, 13, 13, 14, 30, 24, 30, 21, 32, 12, 12, 14, 16, 11, 18, 15, 16, 13, 17, 16, 15, 12, 13, 10, 11, 10, 13, 9, 12, 27, 25, 25, 23, 21, 11, 10, 9, 14, 14, 26, 30, 29, 35, 33, 21, 25, 24, 19, 19, 37, 41, 36, 40, 36, 37, 38, 34, 34, 36, 10, 13, 12, 16, 7 |
  65, 67, 53, 58, 47, 23, 14, 22, 22, 18, 13, 7, 3, 12, 9, 25, 23, 21, 23, 25, 22, 23, 25, 23, 24, 20, 19, 18, 18, 21, 10, 9, 11, 16, 11, 13, 8, 9, 14, 0, 28, 29, 25, 31, 29, 16, 13, 19, 17, 19, 38, 32, 39, 29, 40, 20, 20, 22, 23, 18, 25, 22, 23, 21, 24, 11, 13, 8, 12, 12, 19, 18, 21, 17, 20, 34, 31, 32, 30, 28, 19, 18, 17, 22, 22, 33, 37, 37, 43, 40, 28, 31, 31, 26, 27, 44, 49, 44, 47, 44, 45, 46, 42, 42, 44, 17, 20, 19, 23, 15 |
  39, 41, 27, 31, 20, 29, 21, 30, 32, 29, 17, 32, 27, 20, 24, 11, 10, 8, 5, 8, 11, 9, 11, 11, 12, 10, 10, 12, 11, 8, 18, 20, 18, 12, 19, 19, 23, 23, 20, 28, 0, 4, 5, 3, 5, 20, 18, 12, 18, 15, 12, 6, 14, 9, 12, 8, 9, 7, 5, 10, 5, 8, 6, 8, 7, 31, 28, 27, 26, 22, 9, 10, 7, 12, 8, 11, 10, 8, 8, 5, 10, 12, 11, 12, 9, 7, 12, 10, 16, 14, 10, 13, 11, 9, 7, 18, 22, 17, 21, 17, 18, 20, 17, 15, 19, 17, 14, 16, 14, 17 |
  37, 39, 25, 30, 18, 29, 22, 30, 33, 29, 19, 34, 29, 22, 26, 13, 12, 10, 7, 10, 12, 9, 11, 11, 12, 11, 11, 13, 13, 10, 20, 22, 19, 14, 20, 21, 25, 25, 22, 29, 3, 0, 8, 3, 8, 21, 19, 13, 19, 16, 12, 6, 13, 10, 11, 10, 10, 8, 7, 12, 6, 9, 7, 9, 7, 32, 29, 29, 28, 23, 11, 12, 9, 13, 10, 9, 9, 6, 6, 4, 12, 15, 13, 14, 12, 5, 10, 8, 14, 12, 10, 12, 10, 9, 6, 16, 20, 15, 19, 15, 17, 19, 17, 14, 18, 19, 17, 18, 16, 19 |
  42, 42, 29, 33, 22, 30, 21, 30, 33, 29, 14, 29, 24, 17, 21, 7, 6, 5, 5, 5, 12, 10, 13, 12, 14, 10, 9, 11, 10, 8, 16, 17, 16, 10, 18, 17, 21, 21, 17, 25, 5, 9, 0, 8, 5, 20, 17, 12, 18, 16, 13, 7, 14, 7, 15, 6, 8, 7, 6, 9, 7, 8, 7, 7, 8, 29, 28, 26, 26, 21, 7, 9, 5, 10, 5, 14, 14, 12, 11, 8, 7, 9, 9, 8, 6, 11, 16, 13, 19, 17, 13, 16, 14, 11, 9, 21, 25, 20, 24, 21, 20, 21, 18, 17, 20, 13, 11, 13, 10, 14 |
  36, 38, 24, 28, 17, 31, 24, 32, 35, 31, 20, 35, 30, 23, 27, 12, 12, 11, 8, 10, 14, 11, 12, 13, 14, 13, 13, 15, 14, 11, 21, 23, 21, 15, 22, 22, 27, 26, 23, 31, 3, 5, 7, 0, 7, 23, 21, 15, 20, 18, 10, 4, 11, 9, 9, 11, 12, 10, 8, 13, 8, 10, 9, 11, 9, 33, 31, 31, 29, 25, 12, 13, 10, 15, 11, 9, 10, 7, 8, 6, 13, 15, 14, 14, 12, 5, 10, 7, 13, 11, 12, 14, 11, 11, 8, 14, 19, 14, 18, 15, 15, 17, 15, 12, 16, 19, 17, 19, 16, 20 |
  39, 39, 25, 29, 19, 32, 24, 32, 35, 31, 17, 32, 28, 20, 25, 9, 9, 8, 7, 7, 14, 11, 14, 13, 15, 12, 11, 14, 13, 11, 19, 20, 19, 13, 20, 20, 24, 25, 20, 29, 5, 9, 5, 8, 0, 23, 20, 14, 20, 18, 10, 4, 11, 6, 12, 9, 11, 9, 7, 12, 8, 10, 8, 10, 10, 32, 30, 29, 28, 24, 10, 12, 8, 13, 9, 13, 13, 10, 10, 8, 10, 12, 12, 11, 9, 8, 13, 10, 15, 15, 13, 16, 14, 12, 9, 17, 22, 16, 21, 18, 17, 18, 15, 14, 17, 16, 14, 15, 12, 17 |
  54, 60, 45, 50, 38, 11, 3, 11, 13, 9, 17, 23, 18, 19, 20, 24, 22, 19, 16, 23, 10, 12, 13, 11, 11, 11, 12, 9, 10, 13, 13, 15, 10, 13, 7, 12, 16, 12, 14, 16, 20, 21, 20, 23, 23, 0, 6, 10, 3, 6, 32, 25, 33, 27, 31, 15, 13, 14, 16, 12, 16, 13, 15, 13, 14, 13, 10, 11, 8, 5, 15, 12, 16, 11, 17, 22, 19, 21, 19, 18, 17, 18, 15, 23, 21, 24, 26, 28, 34, 30, 15, 18, 18, 14, 16, 34, 39, 34, 37, 32, 37, 39, 37, 34, 39, 21, 23, 22, 25, 19 |
  54, 58, 44, 48, 37, 15, 5, 15, 17, 12, 12, 19, 15, 15, 16, 20, 18, 15, 13, 19, 9, 11, 13, 11, 11, 9, 9, 7, 7, 10, 9, 11, 5, 9, 3, 7, 12, 9, 9, 13, 18, 19, 17, 21, 20, 5, 0, 6, 4, 7, 30, 23, 31, 23, 30, 11, 10, 12, 13, 9, 14, 11, 13, 11, 13, 13, 11, 10, 9, 4, 11, 9, 13, 8, 14, 22, 19, 21, 19, 17, 13, 14, 11, 19, 17, 23, 26, 26, 33, 29, 15, 19, 19, 14, 15, 33, 38, 33, 36, 32, 35, 37, 35, 32, 36, 16, 18, 18, 20, 14 |
  47, 52, 38, 42, 31, 18, 10, 18, 21, 17, 14, 25, 20, 17, 19, 17, 15, 11, 8, 15, 3, 4, 7, 5, 6, 3, 4, 2, 4, 4, 11, 14, 9, 8, 8, 11, 16, 14, 13, 19, 12, 13, 12, 15, 14, 10, 8, 0, 10, 8, 24, 17, 25, 19, 23, 7, 5, 6, 7, 5, 8, 5, 7, 5, 6, 19, 17, 17, 15, 11, 8, 6, 8, 5, 10, 15, 13, 14, 12, 11, 11, 12, 9, 16, 14, 16, 19, 20, 27, 23, 9, 13, 12, 7, 9, 27, 32, 27, 30, 26, 29, 31, 29, 26, 30, 16, 17, 17, 18, 15 |
  52, 57, 43, 48, 36, 13, 4, 13, 15, 12, 15, 23, 18, 18, 19, 22, 20, 16, 13, 21, 7, 10, 10, 9, 9, 8, 10, 7, 8, 10, 12, 14, 9, 11, 6, 11, 15, 12, 13, 17, 18, 19, 18, 20, 20, 3, 5, 6, 0, 5, 29, 23, 31, 24, 29, 12, 10, 12, 13, 9, 13, 11, 12, 11, 12, 14, 12, 13, 10, 6, 12, 10, 14, 9, 15, 20, 17, 19, 17, 16, 15, 16, 13, 21, 18, 21, 24, 25, 32, 27, 13, 16, 16, 12, 14, 32, 37, 32, 34, 30, 34, 37, 34, 31, 36, 19, 21, 21, 22, 17 |
  49, 54, 40, 45, 33, 14, 7, 15, 18, 14, 16, 25, 20, 19, 21, 21, 18, 15, 11, 19, 5, 7, 8, 6, 6, 6, 8, 5, 7, 8, 13, 15, 10, 11, 8, 12, 17, 15, 14, 19, 15, 16, 16, 18, 18, 6, 10, 7, 6, 0, 27, 21, 29, 22, 26, 11, 9, 10, 11, 8, 11, 8, 10, 9, 9, 17, 15, 16, 13, 9, 11, 9, 12, 9, 14, 17, 14, 16, 14, 13, 14, 15, 12, 20, 17, 18, 21, 22, 29, 24, 10, 13, 13, 9, 11, 29, 34, 29, 32, 27, 32, 34, 32, 29, 34, 19, 20, 20, 22, 18 |
  31, 29, 16, 20, 10, 41, 33, 41, 44, 40, 27, 41, 37, 29, 33, 16, 16, 17, 17, 14, 23, 20, 21, 22, 23, 22, 21, 24, 23, 20, 28, 30, 29, 23, 30, 30, 34, 34, 30, 38, 12, 12, 13, 10, 10, 32, 30, 24, 29, 27, 0, 8, 3, 10, 8, 19, 20, 19, 17, 22, 17, 19, 18, 19, 18, 42, 40, 39, 38, 33, 20, 22, 18, 23, 18, 16, 18, 14, 16, 15, 20, 21, 21, 18, 17, 11, 14, 9, 8, 12, 20, 21, 19, 20, 17, 12, 14, 10, 15, 14, 9, 8, 6, 5, 7, 24, 21, 23, 19, 25 |
  36, 36, 22, 26, 16, 34, 26, 35, 38, 34, 20, 35, 31, 23, 27, 11, 11, 11, 10, 8, 17, 14, 16, 16, 17, 15, 14, 17, 16, 13, 22, 23, 22, 16, 24, 23, 27, 28, 24, 32, 6, 6, 7, 4, 4, 25, 23, 17, 23, 21, 9, 0, 11, 9, 13, 12, 14, 12, 10, 15, 11, 13, 11, 13, 12, 35, 33, 32, 31, 27, 13, 15, 11, 16, 12, 13, 14, 10, 11, 9, 13, 15, 15, 13, 11, 8, 12, 8, 13, 13, 15, 17, 15, 14, 11, 15, 19, 14, 19, 16, 14, 15, 12, 11, 14, 19, 16, 18, 14, 19 |
  33, 29, 16, 20, 11, 42, 34, 43, 46, 42, 27, 41, 37, 29, 33, 15, 16, 18, 18, 14, 25, 22, 23, 24, 25, 23, 22, 25, 24, 21, 29, 30, 30, 24, 31, 30, 34, 35, 30, 39, 14, 13, 14, 11, 11, 33, 31, 25, 31, 29, 5, 11, 0, 8, 11, 20, 21, 20, 18, 23, 19, 21, 19, 21, 20, 43, 41, 40, 39, 35, 21, 23, 19, 24, 19, 18, 20, 17, 18, 17, 20, 22, 22, 18, 17, 14, 16, 11, 10, 15, 22, 24, 22, 22, 19, 14, 16, 12, 18, 17, 11, 8, 4, 7, 6, 24, 21, 23, 18, 25 |
  41, 38, 26, 29, 20, 36, 27, 37, 39, 35, 17, 32, 28, 20, 24, 6, 7, 9, 11, 5, 19, 16, 19, 18, 20, 17, 15, 18, 17, 15, 20, 21, 21, 15, 23, 22, 25, 26, 21, 29, 9, 10, 7, 9, 6, 27, 23, 19, 24, 22, 11, 9, 8, 0, 16, 12, 14, 13, 12, 15, 14, 14, 13, 14, 15, 35, 33, 31, 31, 27, 13, 15, 11, 16, 10, 18, 19, 16, 16, 13, 11, 12, 13, 9, 8, 14, 18, 14, 17, 19, 19, 22, 20, 17, 15, 21, 24, 19, 24, 22, 19, 17, 13, 15, 15, 15, 11, 13, 9, 16 |
  27, 29, 15, 20, 8, 39, 32, 40, 42, 39, 29, 43, 39, 32, 36, 19, 19, 19, 17, 17, 22, 19, 19, 20, 21, 21, 21, 23, 23, 20, 30, 31, 30, 24, 31, 31, 35, 35, 32, 40, 12, 11, 15, 9, 12, 31, 30, 23, 29, 26, 9, 12, 10, 16, 0, 20, 21, 19, 17, 22, 16, 19, 17, 20, 17, 42, 40, 39, 38, 33, 21, 22, 19, 24, 20, 12, 14, 11, 13, 13, 22, 24, 23, 22, 20, 8, 9, 4, 4, 6, 18, 18, 16, 18, 16, 7, 10, 5, 10, 8, 6, 10, 10, 4, 11, 27, 24, 26, 23, 28 |
  46, 48, 34, 38, 27, 24, 15, 25, 27, 23, 11, 25, 20, 14, 18, 10, 8, 5, 3, 9, 8, 6, 10, 8, 10, 5, 3, 6, 5, 3, 11, 13, 10, 5, 12, 12, 16, 16, 12, 20, 8, 10, 6, 11, 9, 15, 11, 7, 12, 11, 19, 12, 20, 12, 20, 0, 3, 5, 7, 4, 6, 4, 4, 3, 6, 24, 22, 20, 20, 15, 2, 3, 2, 5, 4, 15, 14, 13, 12, 9, 5, 7, 4, 10, 7, 14, 18, 17, 23, 21, 11, 15, 14, 9, 8, 25, 29, 24, 28, 24, 25, 27, 24, 22, 25, 12, 11, 12, 12, 11 |
  46, 49, 35, 39, 28, 23, 14, 23, 25, 21, 11, 24, 20, 14, 18, 12, 10, 7, 4, 11, 6, 5, 9, 7, 9, 3, 1, 4, 3, 2, 10, 13, 10, 5, 11, 11, 16, 15, 12, 20, 9, 10, 8, 12, 11, 13, 10, 5, 10, 9, 20, 14, 21, 14, 21, 2, 0, 5, 7, 2, 6, 3, 4, 2, 5, 22, 20, 19, 18, 14, 4, 3, 4, 4, 5, 15, 13, 13, 11, 9, 7, 8, 5, 12, 9, 14, 18, 18, 24, 21, 10, 14, 13, 8, 8, 25, 30, 25, 28, 24, 26, 28, 25, 23, 27, 13, 13, 13, 14, 12 |
  44, 47, 33, 37, 26, 24, 15, 24, 27, 23, 13, 26, 22, 16, 20, 12, 10, 7, 2, 10, 6, 4, 8, 6, 8, 4, 3, 6, 5, 2, 12, 15, 12, 7, 12, 13, 18, 17, 14, 22, 7, 8, 7, 10, 9, 14, 12, 6, 12, 10, 19, 12, 20, 13, 19, 5, 4, 0, 3, 5, 4, 2, 2, 1, 4, 24, 22, 21, 20, 15, 5, 5, 4, 6, 6, 13, 11, 11, 10, 7, 7, 9, 6, 12, 9, 12, 16, 16, 22, 19, 9, 13, 12, 7, 6, 23, 28, 23, 26, 22, 24, 26, 23, 21, 25, 14, 13, 14, 14, 13 |
  43, 45, 31, 36, 25, 25, 17, 25, 28, 24, 14, 28, 23, 17, 21, 12, 10, 7, 1, 10, 7, 5, 8, 7, 9, 5, 5, 7, 7, 4, 14, 16, 13, 8, 14, 15, 19, 19, 16, 23, 5, 7, 6, 8, 7, 16, 13, 7, 13, 11, 17, 10, 18, 12, 17, 8, 6, 2, 0, 7, 3, 3, 2, 3, 3, 26, 24, 23, 22, 17, 6, 6, 4, 7, 6, 12, 11, 10, 9, 6, 8, 10, 7, 12, 9, 11, 15, 14, 21, 18, 9, 13, 11, 7, 5, 22, 26, 21, 25, 21, 23, 25, 22, 20, 24, 15, 13, 15, 14, 14 |
  48, 50, 36, 41, 30, 22, 12, 22, 24, 20, 10, 23, 18, 13, 17, 13, 11, 7, 5, 12, 6, 6, 9, 8, 9, 4, 1, 3, 2, 3, 9, 11, 8, 4, 9, 10, 15, 14, 11, 18, 10, 12, 9, 13, 12, 12, 9, 5, 9, 8, 22, 15, 23, 15, 22, 4, 1, 5, 6, 0, 7, 4, 6, 3, 6, 21, 19, 18, 17, 12, 4, 1, 5, 2, 6, 16, 14, 15, 13, 11, 7, 8, 4, 12, 9, 16, 20, 19, 26, 23, 11, 15, 14, 9, 9, 27, 31, 26, 30, 26, 28, 29, 26, 25, 28, 12, 12, 13, 14, 11 |
  41, 45, 30, 35, 24, 24, 17, 25, 28, 24, 16, 30, 25, 20, 23, 14, 12, 9, 4, 12, 6, 4, 6, 6, 7, 6, 6, 8, 8, 5, 16, 18, 15, 10, 15, 16, 21, 20, 18, 25, 5, 6, 7, 8, 8, 16, 14, 8, 13, 11, 17, 11, 19, 14, 16, 6, 6, 4, 3, 7, 0, 5, 2, 8, 3, 27, 24, 24, 22, 18, 8, 8, 6, 9, 9, 10, 8, 8, 6, 4, 10, 13, 10, 14, 11, 9, 13, 13, 20, 16, 6, 10, 8, 5, 3, 20, 25, 20, 23, 19, 22, 24, 22, 19, 24, 17, 16, 17, 16, 17 |
  44, 47, 33, 38, 27, 22, 14, 23, 25, 22, 14, 27, 22, 17, 20, 13, 12, 8, 4, 12, 5, 3, 6, 5, 7, 3, 3, 5, 5, 2, 13, 15, 12, 8, 12, 13, 18, 17, 15, 22, 8, 9, 8, 10, 10, 13, 11, 5, 11, 8, 19, 13, 21, 14, 19, 4, 3, 2, 3, 4, 4, 0, 4, 4, 3, 24, 21, 21, 19, 15, 6, 5, 5, 6, 7, 13, 11, 11, 9, 7, 9, 11, 7, 13, 10, 12, 16, 16, 23, 19, 8, 12, 11, 6, 5, 23, 28, 23, 26, 22, 25, 27, 24, 22, 26, 15, 15, 16, 15, 14 |
  42, 46, 32, 36, 25, 24, 16, 24, 27, 23, 15, 28, 23, 18, 21, 13, 11, 8, 3, 11, 6, 4, 7, 6, 7, 5, 5, 6, 6, 3, 14, 16, 13, 9, 14, 15, 20, 19, 16, 23, 6, 7, 7, 9, 8, 15, 13, 7, 12, 10, 18, 11, 19, 13, 17, 4, 4, 2, 2, 6, 3, 6, 0, 7, 4, 25, 23, 22, 21, 16, 6, 6, 5, 7, 7, 11, 10, 9, 8, 5, 9, 11, 8, 13, 10, 11, 15, 14, 21, 17, 7, 12, 10, 6, 4, 22, 26, 21, 25, 21, 23, 25, 23, 20, 24, 16, 15, 16, 15, 15 |
  45, 48, 34, 38, 27, 23, 14, 23, 26, 22, 12, 26, 21, 15, 19, 12, 10, 7, 3, 11, 6, 4, 8, 6, 8, 3, 2, 5, 4, 1, 12, 14, 11, 6, 11, 12, 17, 16, 13, 21, 8, 9, 7, 11, 10, 13, 11, 5, 11, 9, 19, 13, 21, 14, 20, 3, 2, 1, 3, 3, 7, 5, 7, 0, 7, 23, 21, 20, 19, 14, 4, 4, 4, 5, 6, 14, 12, 12, 10, 8, 7, 9, 6, 12, 9, 13, 17, 17, 23, 20, 9, 13, 12, 7, 7, 24, 29, 24, 27, 23, 25, 27, 24, 22, 26, 14, 13, 14, 14, 13 |
  42, 46, 32, 36, 25, 23, 15, 23, 26, 22, 16, 29, 24, 19, 22, 14, 13, 10, 4, 12, 5, 2, 5, 4, 6, 4, 5, 6, 7, 4, 15, 17, 14, 10, 14, 15, 20, 19, 17, 24, 7, 7, 8, 9, 10, 14, 13, 6, 12, 9, 18, 12, 20, 15, 17, 6, 5, 4, 3, 6, 3, 5, 3, 8, 0, 25, 23, 22, 21, 16, 8, 7, 6, 8, 9, 11, 9, 9, 7, 5, 10, 12, 9, 15, 12, 10, 14, 14, 21, 17, 6, 10, 9, 4, 3, 21, 26, 21, 24, 20, 23, 26, 24, 20, 25, 17, 16, 17, 17, 16 |
  66, 71, 56, 61, 50, 14, 11, 12, 12, 9, 20, 16, 14, 21, 19, 31, 29, 27, 26, 31, 21, 23, 24, 23, 23, 21, 22, 19, 20, 23, 17, 17, 15, 20, 12, 14, 14, 11, 16, 11, 31, 32, 29, 33, 32, 13, 13, 19, 14, 17, 42, 35, 43, 35, 42, 24, 22, 24, 26, 21, 27, 24, 25, 23, 25, 0, 4, 8, 8, 13, 23, 21, 25, 20, 25, 34, 31, 33, 31, 30, 25, 24, 22, 29, 28, 35, 38, 39, 46, 41, 27, 30, 30, 26, 27, 46, 51, 46, 48, 44, 48, 50, 47, 45, 49, 25, 28, 27, 30, 23 |
  63, 68, 54, 59, 47, 11, 8, 10, 10, 6, 20, 19, 16, 21, 20, 30, 28, 25, 24, 30, 19, 21, 22, 20, 20, 19, 19, 17, 18, 20, 16, 17, 13, 19, 11, 14, 15, 11, 15, 13, 28, 29, 28, 31, 30, 10, 11, 17, 12, 15, 40, 33, 41, 33, 40, 22, 20, 22, 24, 19, 24, 21, 23, 21, 23, 5, 0, 9, 4, 10, 21, 19, 23, 18, 24, 31, 28, 30, 28, 27, 23, 23, 21, 28, 27, 32, 35, 36, 43, 38, 24, 26, 27, 23, 25, 43, 48, 43, 46, 41, 45, 48, 45, 42, 47, 24, 27, 26, 30, 22 |
  64, 68, 54, 58, 47, 16, 9, 15, 15, 11, 16, 14, 11, 17, 15, 27, 25, 23, 23, 27, 19, 21, 22, 21, 21, 19, 18, 17, 17, 20, 13, 13, 11, 17, 9, 11, 10, 7, 12, 8, 27, 29, 26, 31, 29, 11, 10, 17, 13, 16, 39, 32, 40, 31, 39, 20, 19, 21, 23, 18, 24, 21, 22, 20, 22, 5, 8, 0, 9, 9, 20, 18, 22, 16, 22, 32, 29, 31, 28, 27, 21, 20, 18, 25, 24, 32, 36, 36, 43, 39, 25, 28, 28, 24, 25, 43, 48, 43, 46, 42, 45, 47, 44, 42, 45, 21, 24, 23, 26, 19 |
  61, 66, 52, 57, 45, 12, 6, 11, 11, 7, 18, 18, 14, 19, 18, 28, 26, 23, 22, 28, 17, 19, 20, 19, 18, 17, 18, 15, 16, 19, 14, 15, 11, 17, 9, 12, 13, 9, 13, 12, 26, 28, 26, 29, 28, 8, 9, 15, 10, 13, 38, 31, 39, 31, 38, 20, 18, 20, 22, 17, 22, 19, 21, 19, 21, 8, 4, 8, 0, 9, 19, 17, 21, 16, 22, 29, 27, 28, 26, 25, 21, 21, 19, 26, 25, 31, 33, 35, 41, 37, 22, 25, 26, 21, 23, 41, 46, 41, 44, 40, 44, 46, 43, 41, 45, 22, 25, 24, 28, 20 |
  57, 62, 48, 52, 41, 13, 3, 13, 14, 10, 14, 18, 14, 16, 16, 23, 21, 18, 17, 23, 13, 14, 16, 14, 14, 12, 13, 10, 11, 14, 10, 12, 7, 12, 4, 8, 11, 8, 10, 12, 22, 23, 21, 25, 24, 5, 4, 11, 6, 9, 33, 27, 35, 27, 33, 15, 14, 15, 17, 12, 18, 15, 16, 14, 16, 10, 8, 7, 8, 0, 15, 12, 17, 11, 17, 25, 22, 24, 22, 21, 17, 16, 14, 22, 20, 26, 29, 30, 37, 33, 18, 22, 22, 17, 19, 37, 42, 37, 40, 36, 39, 41, 38, 36, 40, 19, 21, 20, 23, 16 |
  47, 49, 35, 39, 28, 25, 15, 25, 27, 23, 9, 23, 18, 12, 16, 10, 8, 4, 5, 9, 9, 8, 12, 10, 12, 6, 4, 7, 5, 5, 9, 11, 9, 3, 11, 10, 15, 15, 11, 19, 9, 11, 7, 12, 10, 15, 11, 8, 12, 11, 20, 13, 21, 13, 21, 2, 4, 5, 6, 4, 8, 6, 6, 4, 8, 23, 21, 20, 19, 15, 0, 5, 7, 7, 10, 17, 16, 15, 14, 11, 3, 5, 2, 9, 6, 16, 20, 19, 25, 22, 13, 17, 16, 11, 10, 26, 31, 25, 29, 26, 27, 28, 24, 23, 26, 10, 9, 10, 11, 9 |
  48, 50, 36, 41, 30, 22, 13, 23, 25, 21, 9, 22, 18, 12, 16, 12, 10, 7, 6, 11, 7, 7, 10, 8, 10, 5, 2, 4, 3, 4, 8, 11, 8, 3, 9, 9, 14, 13, 10, 18, 10, 12, 9, 13, 12, 12, 9, 6, 10, 9, 22, 15, 23, 15, 22, 3, 3, 5, 6, 1, 8, 5, 6, 4, 7, 21, 19, 18, 17, 12, 4, 0, 9, 5, 13, 17, 15, 15, 14, 11, 6, 7, 3, 11, 9, 16, 20, 20, 26, 23, 12, 16, 15, 10, 10, 27, 32, 26, 30, 26, 28, 29, 26, 25, 28, 11, 12, 12, 13, 10 |
  45, 46, 33, 37, 26, 26, 17, 26, 29, 25, 11, 25, 21, 14, 18, 9, 7, 4, 3, 7, 9, 7, 11, 9, 11, 7, 5, 8, 6, 5, 12, 13, 12, 6, 13, 13, 17, 17, 13, 21, 7, 9, 5, 10, 8, 16, 13, 8, 14, 12, 18, 11, 19, 11, 19, 2, 4, 4, 4, 5, 6, 5, 5, 4, 6, 25, 23, 22, 21, 17, 7, 9, 0, 13, 4, 15, 14, 13, 12, 9, 5, 7, 5, 9, 6, 13, 18, 16, 22, 20, 12, 16, 14, 10, 9, 24, 28, 23, 27, 23, 24, 25, 22, 21, 24, 11, 10, 11, 11, 11 |
  49, 52, 38, 42, 31, 21, 12, 22, 24, 19, 9, 21, 16, 12, 15, 13, 11, 8, 7, 12, 8, 7, 11, 9, 10, 5, 3, 4, 2, 5, 7, 10, 6, 3, 8, 8, 13, 12, 9, 17, 12, 13, 10, 15, 13, 11, 8, 5, 9, 9, 23, 16, 24, 16, 24, 5, 4, 6, 7, 2, 9, 6, 7, 5, 8, 20, 18, 16, 16, 11, 6, 5, 12, 0, 13, 18, 16, 16, 15, 12, 7, 7, 4, 12, 10, 17, 21, 21, 27, 24, 13, 17, 16, 11, 11, 28, 33, 28, 31, 28, 29, 31, 28, 26, 29, 11, 12, 12, 14, 10 |
  46, 47, 33, 38, 27, 27, 17, 27, 30, 25, 9, 24, 20, 12, 17, 8, 5, 2, 5, 6, 11, 9, 13, 11, 13, 8, 6, 9, 7, 7, 11, 12, 11, 5, 13, 12, 16, 17, 12, 20, 8, 10, 5, 11, 9, 17, 14, 10, 15, 14, 18, 12, 19, 10, 20, 4, 5, 6, 6, 6, 9, 7, 7, 6, 9, 25, 24, 22, 22, 17, 6, 10, 4, 12, 0, 17, 16, 15, 14, 11, 3, 5, 4, 7, 4, 15, 20, 18, 23, 22, 14, 18, 16, 12, 11, 25, 29, 24, 29, 25, 25, 26, 22, 22, 24, 9, 8, 9, 9, 9 |
  32, 39, 25, 30, 18, 28, 24, 29, 32, 29, 26, 39, 34, 29, 32, 21, 20, 18, 13, 18, 13, 12, 10, 12, 12, 14, 16, 16, 17, 14, 25, 27, 24, 20, 23, 25, 31, 29, 27, 34, 11, 9, 14, 9, 13, 22, 22, 15, 20, 17, 16, 13, 18, 18, 12, 15, 15, 13, 12, 16, 10, 13, 11, 14, 11, 34, 31, 32, 29, 25, 17, 17, 15, 18, 17, 0, 5, 8, 8, 11, 19, 22, 19, 22, 19, 5, 4, 8, 14, 8, 8, 7, 5, 9, 8, 13, 18, 13, 15, 11, 17, 21, 21, 15, 22, 26, 24, 26, 24, 26 |
  35, 42, 28, 33, 21, 25, 21, 26, 29, 26, 24, 37, 32, 27, 30, 20, 19, 17, 11, 18, 10, 9, 7, 9, 9, 12, 13, 14, 15, 12, 23, 25, 21, 18, 21, 23, 28, 27, 25, 31, 10, 9, 14, 10, 13, 19, 19, 13, 17, 14, 18, 14, 20, 19, 14, 14, 13, 11, 11, 14, 8, 11, 10, 12, 9, 31, 28, 29, 27, 22, 16, 15, 14, 16, 16, 4, 0, 7, 7, 10, 18, 20, 17, 21, 18, 7, 8, 11, 17, 11, 5, 4, 2, 6, 6, 16, 21, 16, 18, 14, 20, 24, 23, 18, 24, 25, 23, 25, 23, 24 |
  34, 39, 25, 30, 18, 28, 23, 29, 32, 29, 23, 37, 32, 27, 30, 18, 17, 15, 11, 16, 12, 10, 9, 10, 11, 13, 14, 15, 15, 12, 23, 25, 22, 18, 22, 24, 29, 28, 25, 32, 8, 6, 12, 7, 10, 21, 21, 14, 19, 16, 14, 10, 17, 16, 11, 13, 13, 11, 10, 15, 8, 11, 9, 12, 9, 33, 30, 31, 28, 24, 15, 15, 13, 16, 15, 6, 8, 0, 3, 6, 17, 19, 17, 20, 17, 4, 6, 7, 14, 9, 7, 8, 5, 8, 6, 13, 18, 14, 16, 12, 16, 20, 19, 14, 21, 24, 22, 23, 21, 24 |
  36, 41, 27, 32, 20, 26, 21, 27, 30, 27, 22, 35, 30, 25, 29, 18, 17, 14, 9, 15, 10, 8, 7, 8, 9, 11, 12, 13, 13, 10, 21, 24, 20, 16, 20, 22, 27, 26, 23, 30, 8, 6, 11, 8, 10, 19, 19, 12, 17, 14, 16, 11, 18, 16, 13, 12, 11, 10, 9, 13, 6, 9, 8, 10, 7, 31, 28, 28, 26, 22, 14, 14, 12, 15, 14, 7, 8, 2, 0, 3, 16, 18, 15, 19, 16, 6, 8, 9, 16, 11, 5, 6, 4, 5, 4, 16, 20, 16, 18, 14, 18, 22, 21, 16, 22, 23, 21, 23, 21, 22 |
  37, 42, 27, 32, 21, 26, 20, 27, 30, 27, 19, 33, 28, 23, 26, 15, 14, 11, 7, 13, 9, 7, 7, 8, 9, 9, 10, 11, 11, 8, 19, 21, 18, 13, 18, 20, 25, 24, 21, 28, 5, 4, 8, 6, 8, 18, 17, 11, 16, 13, 15, 9, 17, 13, 13, 9, 9, 7, 6, 11, 4, 7, 5, 8, 5, 30, 27, 27, 25, 21, 11, 11, 9, 12, 11, 11, 10, 7, 7, 0, 13, 15, 13, 16, 13, 6, 10, 10, 17, 13, 6, 9, 7, 5, 3, 17, 22, 17, 20, 16, 19, 22, 20, 16, 21, 20, 18, 20, 18, 20 |
  48, 48, 35, 39, 29, 28, 17, 28, 30, 25, 8, 22, 18, 10, 15, 7, 5, 3, 7, 7, 12, 11, 15, 13, 15, 9, 7, 10, 8, 8, 9, 10, 10, 5, 13, 11, 14, 15, 11, 19, 10, 12, 7, 13, 10, 17, 13, 11, 15, 14, 20, 13, 20, 11, 22, 5, 7, 7, 8, 7, 10, 9, 9, 7, 10, 25, 23, 21, 21, 17, 3, 6, 5, 7, 3, 19, 18, 17, 16, 13, 0, 5, 4, 10, 7, 17, 22, 20, 25, 24, 16, 20, 18, 14, 13, 27, 31, 26, 31, 27, 27, 27, 24, 24, 26, 7, 6, 7, 8, 7 |
  50, 50, 37, 41, 31, 28, 18, 28, 30, 26, 6, 20, 16, 8, 13, 8, 6, 5, 9, 8, 14, 13, 16, 15, 16, 11, 9, 11, 9, 10, 8, 9, 10, 5, 13, 10, 13, 14, 10, 18, 12, 15, 9, 15, 12, 18, 14, 12, 16, 15, 21, 15, 22, 12, 24, 7, 8, 9, 10, 8, 13, 11, 11, 9, 12, 24, 23, 20, 21, 16, 5, 7, 7, 7, 5, 22, 20, 19, 18, 15, 4, 0, 7, 12, 10, 19, 24, 22, 27, 26, 18, 22, 20, 16, 15, 29, 33, 28, 33, 29, 29, 29, 25, 25, 27, 5, 5, 6, 7, 5 |
  49, 50, 37, 41, 30, 25, 15, 25, 27, 23, 7, 21, 17, 10, 14, 10, 8, 5, 7, 9, 10, 9, 13, 11, 13, 7, 5, 7, 5, 6, 7, 9, 8, 2, 10, 9, 13, 13, 9, 17, 11, 13, 9, 14, 12, 15, 11, 9, 13, 12, 21, 15, 22, 13, 23, 4, 5, 6, 7, 4, 10, 7, 8, 6, 9, 22, 21, 18, 19, 14, 2, 3, 5, 4, 4, 19, 17, 17, 15, 13, 5, 8, 0, 13, 10, 17, 22, 21, 26, 24, 15, 19, 18, 13, 12, 28, 32, 27, 31, 28, 28, 29, 26, 25, 28, 8, 9, 9, 10, 7 |
  49, 46, 34, 37, 28, 33, 23, 33, 35, 31, 10, 24, 20, 12, 16, 3, 3, 6, 11, 5, 17, 15, 19, 18, 20, 15, 12, 15, 13, 13, 13, 14, 15, 10, 18, 15, 17, 19, 14, 22, 12, 14, 8, 14, 11, 23, 19, 16, 21, 20, 18, 13, 18, 9, 22, 10, 12, 12, 12, 12, 14, 13, 13, 12, 15, 29, 28, 25, 26, 22, 9, 11, 9, 12, 7, 22, 21, 20, 19, 16, 8, 13, 13, 0, 5, 19, 24, 21, 25, 25, 20, 24, 22, 18, 16, 28, 31, 26, 31, 28, 26, 25, 21, 23, 23, 7, 3, 5, 3, 8 |
  47, 46, 32, 36, 26, 31, 21, 31, 33, 29, 10, 25, 21, 12, 17, 4, 2, 3, 8, 4, 15, 13, 16, 15, 17, 12, 10, 12, 11, 10, 13, 13, 14, 8, 16, 14, 17, 19, 14, 22, 9, 12, 6, 12, 9, 21, 17, 14, 18, 17, 17, 11, 17, 8, 20, 7, 9, 9, 9, 9, 11, 10, 10, 9, 12, 28, 27, 24, 25, 20, 6, 9, 6, 10, 4, 19, 18, 17, 16, 13, 6, 10, 10, 8, 0, 16, 21, 18, 23, 23, 17, 21, 19, 15, 14, 26, 30, 24, 29, 26, 25, 24, 21, 21, 23, 8, 6, 7, 5, 9 |
  32, 37, 22, 27, 15, 31, 25, 32, 35, 32, 24, 38, 33, 27, 31, 17, 16, 15, 11, 14, 14, 12, 12, 13, 14, 14, 15, 16, 16, 13, 24, 26, 23, 18, 24, 25, 30, 29, 26, 33, 7, 5, 11, 5, 8, 24, 23, 16, 21, 18, 11, 8, 14, 14, 8, 14, 14, 12, 11, 16, 9, 12, 11, 13, 10, 35, 32, 32, 31, 26, 16, 16, 13, 17, 15, 5, 7, 4, 6, 6, 17, 19, 17, 19, 16, 0, 5, 8, 12, 8, 10, 11, 9, 10, 8, 11, 16, 11, 15, 11, 14, 17, 16, 11, 17, 24, 21, 23, 20, 24 |
  29, 35, 21, 26, 15, 32, 28, 33, 36, 33, 28, 42, 37, 31, 35, 22, 21, 20, 16, 19, 17, 15, 14, 15, 16, 18, 19, 20, 20, 17, 28, 30, 27, 23, 27, 29, 34, 33, 30, 37, 12, 10, 16, 10, 13, 26, 26, 19, 24, 21, 14, 12, 16, 18, 9, 18, 18, 16, 15, 20, 13, 16, 15, 17, 14, 38, 35, 36, 33, 29, 20, 20, 18, 21, 20, 4, 8, 6, 8, 10, 22, 24, 22, 24, 21, 6, 0, 10, 14, 6, 12, 10, 9, 12, 11, 9, 14, 10, 11, 7, 13, 18, 18, 12, 19, 28, 26, 28, 25, 28 |
  29, 33, 18, 23, 11, 35, 29, 36, 39, 36, 27, 41, 37, 30, 34, 18, 18, 17, 15, 16, 18, 16, 16, 17, 18, 18, 19, 20, 20, 17, 27, 29, 27, 22, 28, 28, 33, 33, 29, 37, 10, 8, 13, 7, 10, 28, 26, 20, 25, 22, 9, 8, 11, 14, 4, 17, 18, 16, 14, 19, 13, 16, 14, 17, 14, 39, 36, 36, 35, 30, 19, 20, 16, 21, 18, 8, 11, 7, 9, 10, 20, 22, 21, 21, 18, 6, 8, 0, 9, 7, 14, 14, 12, 14, 12, 8, 12, 7, 11, 8, 10, 14, 13, 7, 14, 26, 23, 25, 22, 26 |
  24, 26, 11, 16, 5, 42, 36, 43, 46, 43, 32, 47, 43, 35, 39, 22, 23, 23, 21, 20, 25, 23, 23, 24, 25, 25, 25, 27, 27, 24, 33, 35, 33, 28, 34, 35, 39, 39, 35, 43, 16, 14, 19, 13, 15, 34, 33, 27, 32, 29, 8, 13, 10, 17, 4, 23, 24, 22, 21, 26, 20, 23, 21, 23, 21, 46, 43, 43, 41, 37, 25, 26, 22, 27, 23, 14, 17, 14, 16, 17, 25, 27, 26, 25, 23, 12, 14, 7, 0, 10, 21, 21, 19, 21, 19, 5, 7, 3, 8, 8, 3, 8, 10, 3, 10, 31, 28, 30, 26, 32 |
  25, 32, 18, 22, 11, 36, 31, 37, 40, 37, 31, 45, 40, 34, 38, 23, 23, 22, 18, 20, 21, 19, 17, 19, 19, 21, 22, 23, 23, 20, 31, 33, 30, 25, 30, 32, 37, 36, 33, 40, 14, 12, 17, 11, 15, 30, 29, 23, 27, 24, 12, 13, 15, 19, 6, 21, 21, 19, 18, 23, 16, 19, 17, 20, 17, 41, 38, 39, 37, 33, 22, 23, 20, 24, 22, 8, 11, 9, 11, 13, 24, 26, 24, 25, 23, 8, 6, 7, 9, 0, 15, 14, 13, 16, 14, 5, 10, 6, 8, 4, 9, 15, 16, 9, 16, 30, 28, 29, 26, 30 |
  39, 46, 32, 37, 25, 21, 17, 22, 25, 22, 21, 33, 28, 24, 27, 20, 18, 15, 10, 17, 6, 6, 3, 5, 4, 8, 10, 10, 11, 9, 19, 22, 17, 15, 17, 19, 25, 23, 21, 28, 10, 10, 13, 12, 13, 15, 15, 9, 13, 10, 20, 15, 22, 19, 18, 11, 10, 9, 9, 11, 6, 8, 7, 9, 6, 27, 24, 25, 22, 18, 13, 12, 12, 13, 14, 8, 5, 7, 5, 6, 16, 18, 15, 20, 17, 10, 12, 14, 21, 15, 0, 4, 5, 3, 9, 20, 25, 20, 22, 18, 23, 27, 26, 21, 27, 22, 22, 23, 22, 22 |
  37, 45, 31, 36, 25, 22, 20, 24, 27, 24, 25, 37, 32, 28, 31, 23, 22, 19, 14, 21, 10, 10, 7, 9, 8, 12, 15, 14, 15, 13, 24, 26, 21, 19, 21, 23, 29, 27, 25, 31, 13, 12, 16, 14, 16, 18, 19, 13, 16, 13, 21, 17, 24, 22, 18, 15, 14, 13, 13, 15, 10, 12, 12, 13, 10, 30, 26, 28, 25, 22, 17, 16, 16, 17, 18, 7, 4, 8, 6, 9, 20, 22, 19, 24, 21, 11, 10, 14, 21, 14, 6, 0, 5, 9, 13, 19, 23, 19, 20, 16, 23, 27, 27, 21, 28, 27, 26, 27, 26, 26 |
  36, 44, 29, 34, 23, 24, 20, 25, 28, 25, 24, 36, 32, 27, 30, 21, 20, 17, 12, 19, 10, 9, 6, 8, 8, 12, 13, 13, 14, 12, 23, 25, 21, 18, 20, 23, 28, 26, 24, 31, 11, 10, 14, 11, 14, 18, 19, 12, 16, 13, 19, 15, 22, 20, 16, 14, 13, 12, 11, 14, 8, 11, 10, 12, 9, 30, 27, 28, 26, 22, 16, 15, 14, 16, 16, 5, 2, 5, 4, 7, 18, 20, 18, 22, 19, 9, 9, 12, 19, 13, 6, 6, 0, 7, 11, 17, 22, 18, 19, 15, 21, 25, 24, 19, 25, 25, 24, 25, 24, 24 |
  40, 46, 32, 37, 25, 21, 16, 22, 25, 22, 19, 31, 27, 22, 25, 18, 16, 13, 8, 16, 5, 4, 2, 3, 4, 7, 8, 8, 9, 7, 18, 20, 16, 13, 15, 18, 23, 21, 19, 26, 9, 9, 11, 11, 12, 14, 14, 7, 12, 9, 20, 14, 22, 17, 18, 9, 8, 7, 7, 9, 5, 6, 6, 7, 4, 26, 23, 24, 21, 17, 11, 10, 10, 11, 12, 9, 6, 8, 5, 5, 14, 16, 13, 18, 15, 10, 12, 14, 21, 16, 6, 9, 8, 0, 7, 20, 25, 21, 23, 19, 23, 27, 25, 21, 26, 21, 20, 21, 20, 20 |
  39, 44, 30, 35, 23, 24, 18, 25, 27, 24, 18, 32, 27, 22, 25, 16, 14, 11, 6, 14, 7, 5, 5, 5, 6, 7, 8, 9, 10, 7, 18, 20, 16, 12, 16, 18, 23, 22, 19, 27, 7, 6, 9, 8, 9, 16, 15, 9, 14, 11, 17, 11, 19, 15, 16, 8, 8, 6, 5, 9, 3, 5, 4, 7, 3, 27, 25, 25, 23, 19, 10, 10, 9, 11, 11, 8, 6, 6, 4, 3, 13, 15, 12, 16, 14, 8, 11, 12, 19, 14, 8, 10, 9, 4, 0, 19, 24, 19, 22, 18, 21, 24, 22, 19, 24, 20, 18, 20, 18, 19 |
  22, 27, 13, 18, 7, 40, 36, 42, 45, 42, 34, 49, 44, 37, 41, 25, 25, 25, 22, 23, 25, 23, 22, 23, 24, 25, 26, 27, 27, 24, 35, 37, 34, 29, 35, 36, 40, 40, 37, 44, 18, 16, 21, 14, 17, 34, 33, 27, 32, 29, 12, 15, 14, 21, 7, 25, 25, 23, 22, 27, 20, 23, 22, 24, 21, 46, 43, 43, 41, 37, 26, 27, 24, 28, 25, 13, 16, 13, 16, 17, 27, 29, 28, 28, 26, 11, 9, 8, 5, 5, 20, 19, 17, 20, 19, 0, 6, 5, 5, 6, 6, 12, 15, 8, 14, 33, 30, 32, 29, 34 |
  18, 23, 9, 14, 6, 45, 41, 46, 49, 47, 38, 53, 48, 41, 46, 29, 29, 29, 27, 27, 30, 28, 27, 28, 29, 30, 30, 32, 32, 29, 39, 41, 39, 34, 39, 40, 45, 45, 41, 49, 22, 20, 25, 19, 22, 39, 38, 32, 37, 34, 14, 19, 16, 24, 10, 29, 30, 28, 26, 31, 25, 28, 26, 29, 26, 51, 48, 48, 46, 42, 31, 32, 28, 33, 29, 18, 21, 18, 20, 22, 31, 33, 32, 31, 30, 16, 14, 12, 7, 10, 25, 23, 22, 25, 24, 10, 0, 11, 9, 10, 6, 12, 15, 9, 14, 37, 34, 36, 32, 38 |
  23, 26, 12, 17, 6, 41, 36, 42, 45, 42, 33, 48, 43, 36, 40, 24, 24, 24, 21, 22, 25, 23, 22, 23, 24, 25, 25, 27, 27, 24, 34, 36, 34, 28, 34, 35, 40, 39, 36, 44, 17, 15, 20, 14, 16, 34, 33, 27, 32, 29, 10, 14, 12, 19, 5, 24, 25, 23, 21, 26, 20, 23, 21, 24, 21, 46, 43, 43, 41, 37, 25, 26, 23, 28, 24, 13, 16, 14, 16, 17, 26, 28, 27, 26, 24, 11, 10, 7, 3, 6, 20, 19, 18, 21, 19, 6, 8, 0, 10, 11, 4, 10, 12, 6, 12, 32, 29, 31, 27, 33 |
  18, 26, 13, 17, 9, 42, 38, 44, 47, 44, 38, 52, 47, 40, 45, 29, 29, 28, 25, 27, 28, 26, 25, 26, 26, 28, 29, 30, 30, 27, 38, 40, 37, 32, 38, 39, 44, 43, 40, 47, 21, 19, 24, 18, 21, 37, 36, 30, 34, 32, 15, 19, 18, 24, 10, 28, 28, 26, 25, 30, 23, 26, 25, 27, 24, 48, 46, 46, 44, 40, 29, 30, 27, 31, 29, 15, 18, 16, 18, 20, 31, 33, 31, 31, 29, 15, 11, 11, 8, 8, 22, 20, 19, 23, 22, 6, 5, 10, 0, 6, 8, 14, 17, 11, 17, 37, 34, 36, 32, 37 |
  22, 30, 16, 21, 11, 38, 34, 40, 42, 40, 34, 48, 43, 37, 41, 26, 26, 25, 21, 24, 24, 22, 20, 22, 22, 24, 25, 26, 27, 23, 34, 36, 33, 29, 34, 35, 40, 39, 36, 44, 17, 15, 21, 15, 18, 32, 32, 26, 30, 27, 14, 16, 17, 22, 8, 24, 24, 22, 21, 26, 19, 22, 21, 23, 20, 44, 41, 42, 40, 36, 26, 26, 23, 28, 25, 11, 14, 12, 14, 16, 27, 29, 28, 28, 26, 11, 7, 8, 8, 4, 18, 16, 15, 19, 18, 7, 6, 11, 6, 0, 9, 15, 17, 10, 17, 34, 31, 33, 30, 34 |
  23, 23, 9, 14, 2, 44, 38, 45, 48, 45, 34, 49, 44, 37, 41, 24, 24, 25, 23, 22, 27, 25, 25, 26, 27, 27, 27, 29, 29, 26, 35, 37, 35, 30, 36, 37, 41, 41, 37, 45, 18, 17, 20, 15, 17, 37, 35, 29, 34, 32, 9, 14, 11, 19, 6, 25, 26, 24, 23, 28, 22, 25, 23, 25, 23, 48, 45, 45, 44, 39, 27, 28, 24, 29, 25, 17, 20, 16, 18, 19, 27, 29, 28, 26, 25, 14, 13, 10, 3, 9, 23, 23, 21, 23, 21, 6, 6, 4, 8, 9, 0, 10, 14, 9, 12, 32, 29, 31, 27, 33 |
  27, 22, 9, 12, 6, 47, 41, 48, 51, 48, 34, 49, 45, 36, 41, 23, 24, 25, 24, 21, 30, 28, 28, 29, 30, 29, 29, 31, 31, 28, 36, 37, 36, 31, 38, 37, 41, 42, 38, 46, 20, 19, 21, 17, 18, 39, 37, 31, 37, 34, 8, 15, 8, 17, 10, 27, 28, 26, 25, 29, 24, 27, 25, 27, 26, 50, 48, 47, 46, 41, 28, 29, 25, 31, 26, 21, 24, 20, 22, 22, 27, 29, 29, 25, 24, 17, 18, 14, 8, 15, 27, 27, 25, 27, 24, 12, 12, 10, 14, 15, 9, 0, 5, 11, 4, 32, 28, 30, 26, 33 |
  31, 25, 13, 17, 10, 46, 38, 46, 49, 45, 30, 45, 41, 32, 37, 18, 20, 21, 22, 17, 28, 25, 27, 27, 28, 27, 26, 28, 28, 25, 32, 34, 33, 27, 35, 34, 38, 38, 34, 42, 17, 17, 18, 15, 15, 37, 35, 29, 34, 32, 6, 12, 4, 13, 10, 24, 25, 23, 22, 26, 22, 24, 23, 24, 24, 47, 45, 44, 43, 38, 24, 26, 22, 28, 22, 21, 23, 19, 21, 20, 24, 25, 26, 21, 21, 16, 18, 13, 10, 16, 26, 27, 24, 25, 22, 15, 15, 12, 17, 17, 11, 8, 0, 14, 7, 28, 24, 26, 21, 29 |
  27, 26, 12, 17, 6, 42, 35, 43, 45, 42, 31, 45, 41, 33, 38, 20, 21, 21, 20, 18, 25, 22, 23, 23, 24, 24, 24, 26, 26, 23, 32, 34, 32, 26, 33, 33, 37, 38, 34, 42, 15, 14, 17, 12, 14, 34, 32, 26, 31, 29, 5, 11, 7, 15, 4, 22, 23, 21, 20, 25, 19, 22, 20, 22, 20, 45, 42, 42, 41, 36, 23, 25, 21, 26, 22, 15, 18, 14, 16, 16, 24, 25, 25, 23, 21, 11, 12, 7, 3, 9, 21, 21, 19, 21, 19, 8, 9, 6, 11, 10, 7, 12, 15, 0, 15, 29, 26, 28, 24, 30 |
  30, 24, 12, 15, 9, 47, 40, 48, 51, 47, 32, 47, 43, 34, 39, 20, 22, 23, 23, 19, 30, 27, 28, 28, 30, 28, 28, 30, 29, 27, 34, 35, 35, 29, 37, 36, 39, 40, 36, 44, 19, 18, 20, 16, 17, 39, 36, 30, 36, 34, 7, 14, 6, 15, 11, 25, 27, 25, 24, 28, 24, 26, 24, 26, 25, 49, 47, 45, 45, 40, 26, 28, 24, 29, 24, 22, 24, 21, 22, 21, 26, 27, 28, 23, 23, 17, 19, 14, 10, 16, 27, 28, 25, 26, 24, 14, 14, 12, 17, 17, 10, 7, 1, 12, 0, 29, 26, 28, 23, 31 |
  54, 52, 40, 44, 34, 31, 20, 31, 32, 28, 5, 18, 14, 5, 10, 10, 9, 9, 14, 11, 18, 17, 21, 19, 21, 15, 13, 15, 13, 14, 9, 8, 12, 9, 15, 11, 12, 14, 10, 17, 17, 19, 13, 19, 16, 21, 16, 16, 19, 19, 24, 19, 24, 15, 27, 12, 13, 14, 15, 12, 17, 15, 16, 14, 17, 25, 24, 21, 22, 19, 10, 11, 11, 11, 9, 26, 25, 24, 23, 20, 7, 5, 8, 7, 8, 24, 28, 26, 31, 30, 22, 27, 25, 21, 20, 33, 37, 32, 37, 34, 32, 32, 28, 29, 29, 0, 4, 3, 7, 3 |
  51, 49, 36, 40, 31, 33, 22, 33, 34, 30, 8, 22, 18, 9, 13, 6, 5, 7, 13, 8, 18, 17, 20, 19, 21, 15, 13, 15, 14, 14, 12, 12, 14, 10, 17, 14, 15, 18, 13, 20, 14, 17, 11, 17, 14, 23, 18, 17, 21, 20, 21, 16, 21, 11, 24, 11, 13, 13, 13, 12, 16, 15, 15, 13, 16, 28, 27, 24, 25, 21, 9, 12, 10, 12, 8, 24, 23, 22, 21, 18, 6, 5, 9, 3, 6, 21, 26, 23, 28, 28, 22, 26, 24, 20, 18, 30, 34, 29, 34, 31, 29, 28, 24, 26, 26, 4, 0, 3, 3, 6 |
  53, 51, 38, 42, 33, 32, 22, 32, 34, 30, 7, 20, 16, 7, 12, 8, 7, 9, 14, 10, 19, 18, 21, 20, 21, 16, 14, 16, 14, 15, 11, 10, 14, 10, 17, 13, 14, 16, 12, 19, 16, 18, 13, 19, 15, 22, 18, 17, 21, 20, 23, 18, 23, 13, 26, 12, 13, 14, 15, 13, 17, 16, 16, 14, 17, 27, 26, 23, 24, 20, 10, 12, 11, 12, 9, 26, 25, 23, 23, 20, 7, 6, 9, 5, 7, 23, 28, 25, 30, 29, 23, 27, 25, 21, 20, 32, 36, 31, 36, 33, 31, 30, 26, 28, 28, 3, 3, 0, 5, 5 |
  49, 46, 34, 37, 28, 35, 24, 35, 37, 32, 11, 25, 21, 12, 16, 4, 5, 8, 13, 6, 19, 18, 21, 20, 22, 17, 14, 17, 15, 15, 14, 14, 17, 12, 20, 16, 18, 20, 16, 23, 14, 16, 10, 16, 12, 25, 20, 18, 22, 22, 19, 14, 18, 9, 23, 12, 14, 14, 14, 14, 16, 15, 15, 14, 17, 30, 30, 26, 28, 23, 11, 13, 11, 14, 9, 24, 23, 21, 21, 18, 8, 7, 10, 3, 5, 20, 25, 22, 26, 26, 22, 26, 24, 20, 18, 29, 32, 27, 32, 30, 27, 26, 21, 24, 23, 7, 3, 5, 0, 9 |
  55, 54, 41, 45, 35, 29, 18, 28, 30, 26, 3, 17, 13, 4, 8, 11, 10, 9, 13, 12, 17, 16, 20, 18, 20, 14, 12, 13, 12, 13, 7, 6, 10, 8, 13, 9, 10, 12, 7, 15, 17, 19, 14, 20, 17, 19, 14, 15, 17, 18, 25, 19, 25, 16, 28, 11, 12, 13, 14, 11, 17, 14, 15, 13, 16, 23, 22, 19, 20, 16, 9, 10, 11, 10, 9, 26, 24, 24, 22, 20, 7, 5, 7, 8, 9, 24, 28, 26, 32, 30, 22, 26, 24, 20, 19, 34, 38, 33, 37, 34, 33, 33, 29, 30, 31, 3, 6, 5, 9, 0 |];

temps_trajet_c3 = 
[|
  0, 10, 12, 11, 15, 80, 77, 83, 86, 84, 77, 97, 90, 81, 86, 64, 64, 64, 60, 61, 62, 60, 58, 60, 60, 63, 65, 66, 67, 62, 77, 80, 76, 69, 76, 78, 85, 84, 80, 90, 54, 51, 58, 49, 53, 74, 74, 65, 71, 67, 43, 50, 46, 57, 38, 63, 64, 61, 59, 66, 56, 61, 59, 62, 58, 91, 87, 88, 85, 79, 65, 66, 62, 68, 64, 45, 49, 47, 49, 52, 67, 70, 68, 67, 64, 45, 40, 40, 33, 35, 55, 51, 50, 56, 54, 30, 24, 31, 25, 31, 32, 37, 43, 37, 41, 75, 71, 74, 68, 76 |
  11, 0, 12, 7, 16, 92, 84, 94, 98, 94, 76, 97, 91, 79, 85, 60, 62, 63, 63, 58, 70, 66, 66, 68, 69, 69, 69, 72, 71, 67, 79, 81, 79, 71, 81, 81, 86, 87, 81, 93, 56, 54, 58, 52, 54, 82, 80, 72, 79, 75, 40, 50, 40, 53, 40, 66, 67, 65, 63, 69, 62, 66, 63, 66, 64, 98, 94, 93, 92, 85, 67, 70, 64, 72, 65, 54, 58, 54, 57, 58, 67, 69, 69, 64, 63, 51, 49, 45, 35, 44, 64, 63, 60, 64, 61, 37, 31, 36, 36, 41, 32, 30, 35, 36, 32, 73, 68, 70, 64, 74 |
  12, 10, 0, 4, 8, 73, 65, 74, 78, 74, 58, 78, 73, 61, 67, 43, 44, 45, 43, 40, 50, 47, 46, 48, 49, 49, 49, 52, 52, 47, 60, 62, 60, 52, 62, 62, 68, 68, 63, 74, 37, 35, 39, 32, 35, 63, 61, 52, 59, 56, 22, 31, 22, 35, 20, 47, 48, 45, 43, 50, 42, 46, 44, 47, 44, 78, 75, 74, 72, 66, 48, 50, 45, 52, 46, 35, 39, 35, 37, 38, 48, 51, 50, 46, 45, 31, 29, 25, 16, 24, 44, 43, 41, 44, 41, 18, 13, 17, 18, 22, 13, 12, 18, 17, 16, 55, 50, 53, 47, 56 |
  10, 7, 7, 0, 10, 79, 71, 81, 85, 80, 64, 84, 78, 67, 73, 48, 49, 51, 49, 46, 56, 53, 53, 54, 55, 56, 55, 58, 58, 54, 66, 68, 66, 58, 68, 68, 73, 74, 68, 80, 43, 41, 45, 39, 41, 69, 67, 58, 66, 62, 27, 36, 27, 40, 27, 53, 54, 51, 49, 56, 48, 52, 50, 53, 50, 84, 81, 80, 79, 72, 54, 56, 51, 58, 52, 41, 45, 41, 44, 44, 54, 56, 56, 51, 50, 37, 36, 32, 22, 31, 50, 49, 47, 51, 48, 25, 19, 23, 24, 29, 19, 17, 23, 23, 20, 60, 55, 58, 52, 62 |
  15, 15, 6, 10, 0, 63, 55, 65, 69, 64, 49, 70, 64, 53, 59, 35, 36, 36, 34, 32, 40, 37, 37, 38, 39, 40, 40, 43, 42, 38, 51, 53, 51, 43, 53, 53, 59, 59, 54, 65, 27, 25, 30, 23, 26, 53, 51, 42, 50, 46, 14, 22, 16, 27, 11, 37, 39, 36, 34, 41, 33, 37, 34, 37, 35, 69, 65, 65, 63, 56, 39, 41, 36, 43, 37, 25, 29, 25, 28, 28, 40, 42, 42, 38, 36, 21, 20, 16, 6, 15, 34, 34, 31, 35, 32, 10, 8, 8, 12, 15, 3, 8, 13, 8, 12, 47, 42, 45, 39, 48 |
  80, 92, 73, 79, 63, 0, 14, 3, 5, 8, 37, 40, 35, 40, 40, 47, 44, 40, 35, 45, 25, 29, 27, 26, 25, 28, 30, 26, 28, 30, 32, 34, 27, 32, 23, 29, 33, 28, 32, 32, 40, 41, 41, 43, 44, 15, 21, 25, 18, 20, 56, 47, 58, 50, 53, 34, 31, 33, 34, 30, 33, 31, 33, 32, 31, 19, 15, 22, 16, 18, 34, 31, 36, 30, 37, 39, 35, 39, 36, 36, 38, 39, 34, 45, 42, 43, 44, 48, 58, 50, 29, 31, 33, 30, 33, 56, 63, 57, 59, 53, 61, 66, 63, 58, 65, 43, 45, 45, 48, 40 |
  77, 84, 65, 71, 55, 9, 0, 12, 13, 13, 22, 28, 22, 25, 26, 33, 30, 26, 23, 32, 16, 19, 20, 18, 17, 16, 17, 14, 15, 19, 17, 19, 12, 18, 8, 14, 19, 14, 17, 20, 29, 31, 29, 33, 32, 4, 6, 13, 6, 10, 46, 36, 48, 37, 45, 21, 19, 21, 23, 17, 23, 20, 22, 20, 21, 14, 10, 13, 8, 4, 21, 18, 23, 16, 24, 33, 29, 32, 29, 27, 24, 24, 20, 31, 29, 35, 38, 40, 50, 43, 23, 27, 28, 22, 24, 49, 56, 49, 53, 47, 53, 56, 53, 49, 55, 28, 31, 30, 34, 25 |
  83, 94, 74, 81, 65, 4, 17, 0, 4, 9, 36, 38, 34, 39, 39, 47, 44, 40, 36, 46, 26, 30, 28, 28, 26, 28, 30, 27, 28, 31, 31, 33, 26, 32, 22, 28, 32, 26, 31, 30, 41, 42, 42, 44, 45, 15, 20, 25, 18, 21, 57, 48, 59, 51, 55, 34, 32, 33, 35, 30, 34, 32, 34, 32, 32, 17, 13, 20, 15, 17, 35, 31, 36, 30, 38, 40, 36, 40, 37, 37, 38, 39, 34, 45, 43, 44, 46, 50, 59, 51, 31, 33, 35, 31, 34, 58, 64, 58, 60, 55, 62, 67, 64, 59, 66, 42, 45, 44, 48, 39 |
  86, 98, 78, 85, 69, 6, 18, 4, 0, 9, 39, 38, 35, 41, 40, 50, 47, 43, 39, 49, 30, 33, 32, 31, 30, 32, 34, 30, 32, 34, 33, 35, 29, 35, 25, 30, 33, 28, 33, 31, 45, 45, 45, 48, 48, 18, 23, 29, 21, 24, 61, 52, 63, 54, 58, 37, 35, 37, 39, 34, 38, 35, 37, 36, 36, 17, 14, 21, 15, 20, 38, 34, 40, 33, 41, 44, 40, 44, 41, 41, 41, 41, 37, 48, 46, 48, 50, 54, 63, 55, 35, 37, 38, 35, 38, 62, 68, 62, 64, 59, 66, 71, 68, 63, 70, 45, 48, 47, 51, 42 |
  84, 94, 74, 80, 64, 9, 17, 10, 12, 0, 32, 33, 29, 34, 34, 44, 41, 37, 34, 43, 25, 28, 28, 27, 25, 26, 28, 24, 26, 29, 27, 29, 23, 29, 18, 24, 27, 22, 27, 25, 40, 41, 40, 43, 43, 12, 17, 24, 16, 19, 56, 47, 58, 48, 54, 32, 29, 31, 33, 28, 33, 30, 32, 30, 31, 12, 8, 15, 10, 13, 32, 29, 34, 27, 35, 41, 36, 40, 37, 37, 35, 35, 31, 42, 40, 44, 46, 49, 59, 51, 31, 33, 35, 30, 33, 58, 64, 58, 61, 55, 62, 66, 63, 58, 65, 38, 41, 41, 45, 35 |
  77, 76, 58, 64, 49, 37, 22, 36, 39, 32, 0, 16, 13, 6, 9, 17, 15, 14, 18, 18, 22, 21, 26, 23, 25, 18, 15, 17, 14, 17, 6, 5, 10, 9, 15, 9, 11, 14, 7, 17, 24, 27, 20, 28, 24, 23, 17, 19, 21, 22, 37, 28, 37, 24, 40, 15, 15, 18, 19, 14, 22, 19, 20, 17, 22, 28, 27, 22, 25, 19, 12, 13, 15, 12, 13, 35, 33, 32, 30, 27, 10, 8, 10, 14, 14, 33, 39, 37, 45, 42, 29, 35, 33, 26, 25, 47, 53, 46, 52, 47, 47, 47, 42, 42, 44, 7, 11, 9, 15, 4 |
  97, 97, 78, 84, 70, 40, 28, 38, 38, 33, 15, 0, 6, 10, 6, 37, 35, 34, 38, 39, 37, 38, 42, 40, 41, 35, 33, 32, 31, 35, 20, 17, 22, 28, 24, 19, 12, 15, 17, 9, 44, 46, 40, 48, 44, 31, 27, 34, 31, 34, 57, 49, 57, 44, 60, 34, 34, 36, 38, 32, 41, 37, 39, 35, 40, 23, 25, 19, 24, 24, 32, 31, 35, 29, 33, 54, 51, 51, 49, 46, 31, 28, 29, 33, 34, 52, 58, 57, 65, 62, 45, 51, 50, 43, 44, 67, 73, 66, 72, 67, 68, 67, 62, 63, 65, 25, 30, 27, 34, 23 |
  90, 91, 73, 78, 64, 35, 22, 34, 35, 29, 12, 6, 0, 9, 8, 32, 30, 28, 31, 33, 31, 32, 36, 33, 34, 28, 26, 26, 24, 29, 13, 11, 15, 21, 17, 13, 6, 9, 11, 5, 37, 40, 34, 42, 38, 25, 20, 27, 25, 28, 51, 42, 52, 39, 54, 27, 27, 30, 32, 25, 34, 30, 32, 29, 33, 20, 22, 15, 20, 19, 25, 24, 29, 23, 27, 47, 44, 45, 42, 39, 25, 22, 23, 28, 29, 46, 52, 51, 59, 55, 39, 44, 44, 37, 37, 61, 67, 60, 65, 60, 61, 62, 57, 57, 59, 20, 25, 23, 29, 17 |
  81, 79, 61, 67, 53, 40, 25, 39, 41, 34, 5, 12, 10, 0, 3, 20, 18, 18, 23, 21, 26, 26, 31, 28, 30, 23, 20, 21, 19, 22, 9, 6, 13, 14, 18, 11, 10, 14, 8, 16, 28, 31, 23, 32, 28, 26, 20, 23, 25, 26, 40, 32, 40, 27, 44, 19, 20, 22, 24, 18, 27, 23, 25, 21, 26, 29, 29, 23, 26, 22, 16, 17, 19, 16, 17, 40, 37, 37, 35, 31, 14, 11, 14, 16, 17, 37, 43, 41, 48, 46, 33, 39, 37, 31, 30, 51, 57, 50, 56, 51, 51, 50, 45, 46, 47, 7, 13, 10, 17, 5 |
  86, 85, 67, 73, 59, 40, 26, 39, 40, 34, 8, 8, 7, 3, 0, 26, 24, 23, 28, 28, 30, 30, 35, 32, 34, 27, 24, 25, 23, 27, 11, 8, 15, 18, 19, 13, 7, 13, 10, 12, 33, 36, 29, 38, 34, 28, 22, 27, 27, 29, 46, 38, 46, 33, 49, 24, 25, 27, 29, 23, 32, 28, 30, 26, 31, 26, 27, 21, 25, 22, 22, 22, 25, 21, 23, 45, 42, 42, 40, 36, 20, 17, 19, 22, 23, 43, 49, 47, 54, 52, 38, 43, 42, 35, 35, 57, 63, 56, 62, 57, 57, 56, 51, 52, 53, 13, 18, 16, 22, 11 |
  64, 60, 43, 48, 35, 47, 33, 47, 50, 44, 17, 37, 32, 20, 26, 0, 6, 14, 25, 10, 24, 21, 26, 25, 27, 21, 18, 22, 20, 18, 21, 22, 24, 16, 27, 24, 28, 30, 23, 34, 15, 17, 10, 17, 12, 33, 28, 23, 30, 28, 21, 15, 21, 8, 26, 14, 17, 16, 16, 18, 19, 18, 18, 17, 20, 43, 41, 38, 39, 32, 13, 17, 12, 18, 10, 29, 28, 25, 25, 21, 10, 11, 14, 4, 5, 23, 30, 25, 31, 32, 27, 32, 29, 25, 22, 35, 40, 33, 40, 36, 33, 31, 25, 28, 28, 13, 8, 11, 5, 15 |
  64, 62, 44, 49, 36, 44, 30, 44, 47, 41, 15, 35, 30, 18, 24, 6, 0, 9, 19, 5, 22, 19, 24, 22, 24, 18, 15, 19, 17, 15, 19, 20, 21, 13, 24, 21, 25, 27, 21, 32, 13, 16, 8, 16, 12, 30, 25, 20, 27, 25, 23, 15, 22, 10, 27, 11, 14, 14, 13, 15, 17, 16, 15, 14, 17, 40, 38, 35, 36, 29, 10, 14, 10, 15, 7, 27, 26, 24, 23, 19, 7, 8, 11, 4, 2, 22, 29, 25, 31, 31, 25, 30, 27, 22, 20, 35, 40, 33, 40, 36, 34, 33, 27, 29, 30, 12, 7, 10, 6, 13 |
  64, 63, 45, 51, 36, 40, 26, 40, 43, 37, 14, 34, 28, 18, 23, 12, 8, 0, 13, 7, 17, 14, 19, 17, 20, 13, 10, 14, 12, 11, 16, 18, 17, 9, 20, 18, 23, 24, 18, 30, 11, 14, 6, 15, 11, 26, 21, 16, 22, 21, 24, 15, 24, 12, 27, 7, 9, 9, 9, 10, 13, 11, 11, 9, 13, 37, 35, 32, 32, 25, 6, 9, 5, 11, 3, 24, 23, 21, 20, 16, 4, 7, 7, 8, 4, 20, 27, 24, 31, 30, 21, 26, 24, 18, 16, 34, 40, 33, 39, 34, 34, 34, 29, 29, 32, 13, 10, 12, 10, 13 |
  60, 63, 43, 49, 34, 35, 23, 36, 39, 34, 18, 38, 31, 23, 28, 23, 19, 11, 0, 16, 11, 7, 12, 11, 13, 8, 6, 10, 9, 5, 18, 21, 18, 10, 19, 20, 26, 26, 21, 32, 7, 9, 7, 11, 10, 22, 18, 11, 18, 16, 23, 14, 25, 16, 24, 4, 5, 3, 2, 7, 5, 5, 4, 4, 6, 36, 33, 31, 30, 23, 7, 8, 4, 10, 7, 18, 16, 15, 13, 9, 9, 12, 9, 15, 11, 15, 21, 20, 29, 25, 13, 19, 16, 11, 9, 30, 37, 29, 35, 30, 32, 34, 30, 27, 32, 19, 17, 19, 18, 18 |
  61, 58, 40, 46, 32, 45, 32, 46, 49, 43, 18, 39, 33, 21, 28, 8, 4, 7, 17, 0, 22, 19, 23, 22, 24, 19, 16, 20, 18, 16, 22, 23, 23, 15, 27, 24, 28, 30, 24, 35, 11, 14, 7, 14, 9, 32, 27, 21, 28, 26, 19, 12, 19, 6, 23, 12, 15, 14, 13, 16, 16, 16, 15, 15, 17, 43, 41, 38, 38, 32, 12, 15, 10, 17, 9, 25, 25, 22, 21, 17, 10, 11, 13, 7, 5, 20, 27, 22, 28, 28, 24, 29, 26, 22, 19, 32, 37, 30, 37, 33, 30, 29, 24, 25, 26, 15, 11, 13, 9, 17 |
  62, 70, 50, 56, 40, 25, 16, 26, 30, 25, 22, 37, 31, 26, 30, 24, 22, 17, 11, 22, 0, 5, 6, 3, 5, 4, 8, 6, 8, 7, 19, 22, 16, 13, 15, 19, 26, 23, 21, 30, 16, 16, 17, 19, 19, 13, 13, 4, 10, 6, 32, 23, 34, 26, 30, 11, 9, 9, 10, 9, 9, 7, 8, 8, 7, 29, 25, 26, 23, 17, 13, 10, 13, 10, 15, 18, 14, 17, 14, 12, 17, 19, 14, 24, 20, 20, 23, 25, 35, 28, 9, 14, 14, 7, 9, 34, 41, 34, 38, 32, 38, 42, 39, 34, 41, 25, 25, 26, 27, 23 |
  60, 66, 47, 53, 37, 29, 19, 30, 33, 28, 21, 38, 32, 26, 30, 21, 19, 14, 7, 19, 5, 0, 7, 4, 7, 4, 6, 6, 8, 4, 19, 22, 17, 12, 17, 20, 27, 25, 21, 31, 12, 13, 13, 15, 16, 17, 15, 6, 13, 10, 28, 19, 30, 22, 27, 8, 7, 6, 6, 8, 5, 4, 5, 5, 3, 32, 28, 29, 26, 20, 11, 9, 10, 10, 13, 16, 13, 14, 11, 9, 15, 17, 13, 21, 17, 17, 21, 22, 32, 26, 8, 14, 13, 6, 6, 32, 38, 32, 36, 30, 35, 38, 35, 31, 37, 24, 23, 24, 24, 22 |
  58, 66, 46, 53, 37, 27, 20, 28, 32, 28, 26, 42, 36, 31, 35, 26, 24, 19, 12, 23, 6, 6, 0, 4, 4, 9, 12, 11, 12, 10, 24, 27, 21, 18, 20, 24, 31, 28, 26, 35, 15, 14, 17, 17, 19, 17, 18, 9, 14, 10, 30, 21, 32, 26, 27, 13, 12, 11, 11, 13, 8, 9, 9, 11, 7, 34, 30, 31, 28, 22, 16, 14, 15, 15, 18, 14, 10, 13, 10, 10, 20, 23, 18, 26, 22, 16, 19, 22, 31, 24, 4, 9, 9, 3, 6, 30, 37, 31, 34, 28, 34, 39, 37, 31, 39, 29, 28, 30, 29, 27 |
  60, 68, 48, 54, 38, 26, 18, 28, 31, 27, 23, 40, 33, 28, 32, 25, 22, 17, 11, 22, 2, 4, 4, 0, 4, 6, 9, 8, 10, 7, 21, 24, 18, 15, 17, 21, 28, 26, 23, 32, 14, 15, 16, 17, 18, 15, 15, 6, 12, 8, 30, 22, 33, 25, 28, 11, 9, 9, 9, 10, 8, 7, 8, 9, 6, 32, 28, 29, 26, 20, 14, 12, 13, 12, 16, 16, 12, 14, 11, 10, 18, 20, 15, 24, 21, 18, 21, 23, 33, 26, 6, 12, 11, 5, 7, 32, 39, 32, 36, 30, 36, 40, 37, 32, 39, 26, 26, 27, 27, 25 |
  60, 69, 49, 55, 39, 25, 17, 26, 30, 25, 25, 41, 34, 30, 34, 27, 24, 20, 13, 24, 4, 8, 5, 4, 0, 8, 11, 9, 12, 10, 23, 26, 19, 17, 18, 22, 29, 26, 25, 33, 17, 17, 19, 19, 20, 15, 15, 8, 12, 8, 32, 24, 34, 28, 29, 14, 12, 11, 12, 12, 10, 9, 10, 11, 8, 31, 27, 29, 25, 20, 16, 14, 15, 14, 18, 16, 12, 15, 12, 12, 20, 22, 18, 27, 23, 19, 21, 24, 34, 27, 6, 11, 11, 5, 9, 33, 40, 33, 36, 31, 37, 41, 39, 34, 41, 29, 28, 30, 30, 27 |
  63, 69, 49, 56, 40, 28, 16, 28, 32, 26, 18, 35, 28, 23, 27, 21, 18, 13, 8, 19, 4, 4, 9, 6, 8, 0, 6, 4, 6, 9, 16, 19, 13, 10, 13, 16, 23, 21, 18, 28, 14, 15, 14, 18, 17, 15, 12, 3, 11, 8, 30, 21, 32, 23, 29, 7, 5, 6, 7, 5, 8, 4, 6, 5, 6, 29, 26, 25, 23, 17, 9, 6, 9, 7, 11, 20, 16, 17, 15, 12, 13, 15, 10, 20, 16, 20, 24, 25, 34, 29, 11, 17, 16, 9, 10, 35, 41, 35, 39, 33, 37, 40, 37, 33, 39, 21, 21, 22, 23, 20 |
  65, 69, 49, 55, 40, 30, 17, 30, 34, 28, 15, 33, 26, 20, 24, 18, 15, 10, 6, 16, 8, 6, 12, 9, 11, 5, 0, 6, 7, 11, 14, 17, 12, 6, 13, 14, 21, 20, 16, 26, 13, 15, 12, 17, 16, 16, 12, 6, 13, 11, 29, 20, 31, 21, 29, 4, 2, 4, 7, 2, 9, 4, 6, 3, 7, 30, 27, 25, 24, 18, 5, 3, 6, 4, 8, 21, 18, 19, 16, 13, 9, 12, 7, 17, 13, 20, 26, 25, 34, 30, 14, 20, 18, 12, 11, 36, 42, 35, 40, 34, 37, 40, 36, 33, 38, 18, 18, 19, 20, 16 |
  66, 72, 52, 58, 43, 26, 14, 27, 30, 24, 17, 32, 26, 21, 25, 22, 19, 14, 10, 20, 6, 6, 11, 8, 9, 3, 7, 0, 4, 10, 14, 17, 11, 9, 11, 14, 21, 19, 16, 25, 16, 18, 16, 20, 19, 13, 9, 2, 9, 7, 32, 23, 34, 24, 32, 8, 6, 8, 10, 5, 11, 6, 9, 6, 9, 27, 23, 23, 21, 14, 9, 6, 10, 5, 12, 22, 19, 20, 17, 15, 13, 15, 10, 20, 17, 22, 27, 28, 37, 32, 14, 19, 18, 11, 12, 38, 44, 37, 42, 36, 40, 43, 39, 36, 42, 20, 21, 22, 23, 18 |
  67, 71, 52, 58, 42, 28, 15, 28, 32, 26, 14, 31, 24, 19, 23, 20, 17, 12, 9, 18, 8, 8, 12, 10, 12, 7, 5, 5, 0, 12, 12, 15, 10, 6, 11, 12, 20, 18, 14, 24, 15, 18, 14, 20, 18, 14, 10, 5, 11, 9, 32, 22, 33, 23, 32, 6, 4, 7, 9, 3, 11, 6, 9, 5, 9, 27, 24, 23, 22, 15, 7, 3, 9, 3, 10, 23, 20, 21, 18, 15, 11, 12, 7, 18, 15, 23, 28, 28, 37, 32, 15, 21, 20, 13, 13, 38, 44, 37, 42, 37, 40, 42, 38, 35, 41, 18, 19, 19, 21, 16 |
  62, 67, 47, 54, 38, 30, 19, 31, 34, 29, 17, 35, 29, 22, 27, 18, 15, 11, 5, 16, 7, 4, 10, 7, 10, 6, 6, 5, 4, 0, 16, 19, 14, 9, 15, 17, 24, 22, 18, 29, 11, 13, 11, 15, 14, 17, 14, 6, 14, 11, 28, 18, 30, 20, 27, 5, 3, 3, 5, 4, 6, 2, 4, 2, 5, 31, 28, 27, 26, 19, 7, 5, 6, 7, 9, 19, 16, 16, 14, 11, 11, 13, 9, 18, 14, 18, 23, 23, 33, 28, 12, 18, 16, 9, 9, 33, 40, 33, 38, 32, 35, 38, 34, 31, 37, 20, 19, 20, 21, 18 |
  77, 79, 60, 66, 51, 32, 17, 31, 33, 27, 6, 20, 13, 9, 11, 21, 19, 16, 18, 22, 19, 19, 24, 21, 23, 16, 14, 14, 12, 16, 0, 5, 5, 10, 9, 3, 8, 9, 3, 14, 25, 27, 21, 29, 26, 18, 12, 16, 17, 18, 39, 30, 40, 27, 41, 15, 14, 17, 19, 12, 22, 18, 19, 16, 21, 23, 22, 17, 19, 14, 13, 12, 16, 10, 15, 35, 32, 32, 30, 26, 13, 11, 10, 18, 17, 33, 39, 38, 46, 43, 27, 33, 31, 24, 24, 48, 54, 47, 53, 47, 49, 50, 45, 44, 47, 12, 16, 15, 20, 9 |
  80, 81, 62, 68, 53, 34, 19, 33, 35, 29, 5, 17, 11, 6, 8, 22, 20, 18, 21, 23, 22, 22, 27, 24, 26, 19, 17, 17, 15, 19, 11, 0, 11, 17, 16, 5, 6, 9, 3, 13, 27, 30, 23, 31, 28, 21, 15, 19, 20, 21, 41, 32, 41, 29, 43, 17, 17, 20, 22, 15, 25, 21, 22, 19, 24, 23, 23, 18, 20, 16, 15, 14, 18, 13, 17, 38, 35, 35, 32, 29, 14, 12, 13, 19, 18, 36, 42, 40, 48, 45, 30, 36, 35, 28, 27, 51, 57, 50, 55, 50, 51, 51, 46, 46, 49, 11, 16, 14, 20, 8 |
  76, 79, 60, 66, 51, 27, 12, 26, 29, 23, 10, 22, 15, 13, 15, 24, 21, 17, 18, 23, 16, 17, 21, 18, 19, 13, 12, 11, 10, 14, 6, 11, 0, 11, 10, 3, 11, 8, 6, 15, 24, 27, 22, 29, 26, 14, 7, 12, 12, 14, 40, 30, 41, 29, 41, 14, 13, 16, 18, 11, 20, 16, 18, 15, 19, 20, 18, 15, 16, 10, 13, 11, 16, 9, 16, 33, 29, 30, 28, 25, 14, 14, 11, 21, 19, 32, 37, 37, 46, 41, 24, 30, 29, 22, 22, 47, 54, 46, 51, 46, 49, 50, 46, 44, 48, 16, 19, 19, 23, 13 |
  69, 71, 52, 58, 43, 32, 18, 32, 35, 29, 9, 28, 21, 14, 18, 16, 13, 9, 10, 15, 13, 12, 18, 15, 17, 10, 6, 9, 6, 9, 12, 17, 11, 0, 11, 10, 16, 16, 11, 22, 17, 19, 14, 21, 18, 18, 13, 11, 15, 15, 32, 22, 32, 21, 33, 7, 7, 9, 11, 5, 14, 10, 12, 8, 13, 28, 26, 23, 23, 17, 5, 4, 8, 4, 7, 27, 24, 24, 22, 19, 6, 7, 3, 14, 11, 25, 31, 30, 38, 35, 20, 26, 24, 18, 17, 40, 46, 39, 45, 39, 41, 42, 38, 36, 40, 12, 13, 14, 16, 10 |
  76, 81, 62, 68, 53, 23, 8, 22, 25, 18, 15, 24, 17, 18, 19, 27, 24, 20, 19, 27, 15, 17, 20, 17, 18, 13, 13, 11, 11, 15, 11, 16, 8, 15, 0, 7, 13, 9, 10, 16, 26, 28, 24, 30, 28, 9, 3, 12, 9, 11, 42, 32, 43, 32, 42, 16, 14, 17, 19, 12, 21, 17, 19, 16, 19, 17, 15, 13, 12, 6, 15, 12, 18, 10, 18, 32, 29, 30, 28, 25, 18, 18, 14, 25, 23, 33, 37, 38, 47, 42, 23, 28, 28, 21, 23, 48, 54, 47, 52, 46, 50, 52, 48, 46, 51, 21, 24, 23, 27, 18 |
  78, 81, 62, 68, 53, 29, 14, 28, 30, 24, 9, 19, 13, 11, 13, 24, 21, 18, 20, 24, 19, 20, 24, 21, 22, 16, 14, 14, 12, 17, 3, 5, 3, 10, 7, 0, 9, 10, 5, 15, 26, 29, 23, 30, 28, 16, 10, 15, 15, 17, 41, 32, 42, 30, 43, 16, 15, 18, 20, 13, 23, 18, 20, 17, 21, 20, 19, 14, 16, 11, 14, 13, 18, 11, 17, 35, 32, 33, 30, 27, 15, 14, 12, 21, 20, 34, 40, 39, 48, 44, 27, 32, 32, 25, 25, 49, 56, 49, 54, 48, 51, 52, 47, 46, 50, 15, 19, 18, 23, 12 |
  85, 86, 68, 73, 59, 33, 19, 32, 33, 27, 11, 12, 6, 10, 7, 28, 25, 23, 26, 28, 26, 27, 31, 28, 29, 23, 21, 21, 20, 24, 8, 6, 11, 16, 13, 8, 0, 6, 6, 7, 32, 35, 29, 37, 33, 22, 16, 22, 21, 24, 47, 38, 47, 34, 49, 22, 22, 25, 27, 20, 29, 25, 27, 24, 28, 20, 21, 14, 18, 16, 20, 19, 24, 18, 22, 42, 39, 40, 37, 34, 20, 18, 18, 24, 24, 41, 47, 46, 54, 50, 34, 40, 39, 32, 32, 56, 62, 55, 60, 55, 56, 57, 52, 52, 54, 16, 21, 19, 25, 13 |
  84, 87, 68, 74, 59, 28, 14, 26, 28, 22, 14, 15, 9, 14, 13, 30, 27, 24, 26, 30, 23, 25, 28, 26, 26, 21, 20, 19, 18, 22, 9, 9, 8, 16, 9, 8, 8, 0, 8, 7, 32, 34, 29, 36, 34, 17, 12, 20, 17, 20, 47, 38, 48, 36, 49, 22, 21, 24, 26, 19, 28, 24, 26, 23, 27, 15, 15, 9, 13, 10, 20, 18, 24, 17, 23, 40, 37, 38, 35, 33, 21, 20, 18, 27, 26, 40, 45, 45, 54, 49, 31, 37, 36, 29, 30, 55, 62, 54, 59, 54, 57, 58, 53, 52, 56, 20, 24, 23, 28, 17 |
  80, 81, 63, 68, 54, 32, 17, 31, 33, 27, 7, 17, 11, 8, 10, 23, 21, 18, 21, 24, 21, 21, 26, 23, 25, 18, 16, 16, 14, 18, 3, 3, 6, 11, 10, 7, 7, 12, 0, 14, 27, 30, 24, 31, 28, 19, 13, 18, 18, 19, 41, 32, 42, 30, 44, 17, 17, 19, 21, 15, 24, 20, 22, 18, 23, 21, 21, 16, 18, 14, 15, 14, 18, 12, 17, 37, 34, 34, 32, 29, 15, 13, 13, 20, 19, 36, 41, 40, 49, 45, 29, 35, 34, 27, 27, 50, 57, 50, 55, 50, 51, 52, 47, 47, 50, 13, 17, 16, 21, 10 |
  90, 93, 74, 80, 65, 32, 20, 30, 31, 25, 17, 9, 5, 16, 12, 34, 32, 30, 32, 35, 30, 31, 35, 32, 33, 28, 26, 25, 24, 29, 14, 13, 15, 22, 16, 12, 8, 8, 12, 0, 38, 41, 35, 42, 39, 23, 18, 26, 23, 26, 53, 44, 53, 41, 55, 28, 27, 30, 32, 25, 34, 30, 32, 29, 33, 16, 18, 11, 16, 16, 26, 25, 29, 23, 28, 47, 43, 45, 42, 39, 26, 24, 24, 31, 30, 46, 52, 51, 60, 56, 38, 43, 43, 36, 37, 61, 68, 61, 66, 60, 62, 63, 58, 58, 61, 23, 28, 26, 32, 20 |
  54, 56, 37, 43, 27, 40, 29, 41, 45, 40, 24, 44, 37, 28, 33, 15, 13, 11, 7, 11, 16, 12, 15, 14, 17, 14, 13, 16, 15, 11, 25, 27, 24, 17, 26, 26, 32, 32, 27, 38, 0, 5, 4, 4, 4, 28, 25, 17, 24, 21, 17, 8, 19, 12, 17, 11, 12, 9, 7, 14, 7, 10, 8, 11, 9, 42, 39, 38, 36, 30, 13, 14, 9, 16, 11, 14, 14, 11, 11, 7, 14, 17, 15, 17, 13, 10, 17, 14, 22, 19, 14, 18, 15, 12, 9, 24, 30, 23, 29, 24, 25, 27, 24, 21, 26, 23, 20, 22, 19, 23 |
  51, 54, 35, 41, 25, 41, 31, 42, 45, 41, 27, 46, 40, 31, 36, 17, 16, 14, 9, 14, 16, 13, 14, 15, 17, 15, 15, 18, 18, 13, 27, 30, 27, 19, 28, 29, 35, 34, 30, 41, 4, 0, 8, 3, 8, 29, 27, 18, 26, 22, 16, 8, 18, 14, 15, 13, 14, 11, 9, 16, 8, 12, 10, 13, 10, 44, 41, 40, 38, 32, 15, 17, 12, 18, 14, 12, 12, 8, 8, 5, 17, 20, 18, 20, 16, 7, 13, 11, 20, 16, 13, 17, 13, 12, 8, 21, 28, 20, 26, 21, 23, 26, 23, 19, 25, 26, 23, 25, 22, 26 |
  58, 58, 39, 45, 30, 41, 29, 42, 45, 40, 20, 40, 34, 23, 29, 10, 8, 6, 7, 7, 17, 13, 17, 16, 19, 14, 12, 16, 14, 11, 21, 23, 22, 14, 24, 23, 29, 29, 24, 35, 6, 10, 0, 9, 5, 28, 24, 17, 24, 22, 18, 9, 20, 9, 21, 9, 11, 9, 8, 12, 10, 11, 9, 10, 11, 41, 38, 36, 35, 29, 10, 12, 6, 14, 7, 19, 19, 16, 15, 11, 10, 13, 12, 11, 8, 15, 22, 18, 26, 24, 18, 23, 20, 16, 13, 28, 34, 27, 33, 29, 28, 29, 25, 23, 27, 18, 15, 17, 14, 19 |
  49, 52, 32, 39, 23, 43, 33, 44, 48, 43, 28, 48, 42, 32, 38, 17, 16, 15, 11, 14, 19, 15, 17, 17, 19, 18, 17, 20, 20, 15, 29, 31, 29, 21, 30, 30, 37, 36, 31, 42, 3, 6, 7, 0, 7, 32, 29, 20, 28, 25, 13, 5, 16, 13, 13, 15, 16, 13, 11, 18, 11, 14, 12, 15, 13, 46, 43, 42, 41, 34, 17, 19, 13, 20, 15, 13, 14, 10, 10, 8, 18, 21, 19, 20, 16, 7, 14, 10, 18, 15, 16, 19, 15, 15, 11, 20, 26, 19, 25, 20, 21, 23, 20, 16, 22, 27, 23, 26, 22, 27 |
  53, 54, 35, 41, 26, 44, 32, 45, 48, 43, 24, 44, 38, 28, 34, 12, 12, 11, 10, 9, 19, 16, 19, 18, 20, 17, 16, 19, 18, 14, 26, 28, 26, 18, 28, 28, 33, 34, 28, 39, 5, 10, 4, 9, 0, 31, 28, 20, 28, 25, 14, 5, 16, 9, 16, 13, 14, 12, 10, 16, 11, 14, 12, 13, 13, 45, 42, 40, 39, 33, 14, 16, 11, 18, 12, 17, 17, 14, 14, 11, 14, 17, 16, 15, 12, 12, 18, 14, 21, 20, 18, 22, 19, 16, 13, 24, 30, 22, 29, 25, 24, 25, 21, 19, 23, 22, 19, 21, 17, 23 |
  74, 82, 63, 69, 53, 15, 4, 15, 18, 12, 23, 31, 25, 26, 28, 33, 30, 26, 22, 32, 13, 17, 17, 15, 15, 15, 16, 13, 14, 17, 18, 21, 14, 18, 9, 16, 22, 17, 19, 23, 28, 29, 28, 32, 31, 0, 7, 10, 3, 7, 44, 35, 46, 37, 43, 20, 18, 20, 21, 16, 21, 18, 20, 18, 19, 17, 13, 16, 11, 7, 20, 17, 22, 16, 24, 30, 26, 29, 26, 25, 24, 25, 20, 31, 28, 33, 36, 38, 48, 41, 20, 24, 25, 19, 22, 47, 54, 47, 51, 45, 51, 54, 51, 47, 53, 29, 31, 31, 34, 26 |
  74, 80, 61, 67, 51, 21, 6, 20, 23, 17, 17, 27, 20, 20, 22, 28, 25, 21, 18, 27, 13, 15, 18, 15, 15, 12, 12, 9, 10, 14, 12, 15, 7, 13, 3, 10, 16, 12, 13, 18, 25, 27, 24, 29, 28, 5, 0, 6, 4, 7, 41, 32, 43, 32, 41, 16, 14, 16, 18, 12, 19, 15, 18, 15, 17, 18, 15, 14, 12, 6, 15, 12, 18, 10, 19, 30, 26, 28, 26, 24, 18, 19, 15, 26, 23, 31, 35, 37, 46, 40, 21, 26, 26, 19, 21, 46, 53, 46, 50, 44, 49, 52, 48, 45, 50, 22, 25, 25, 28, 20 |
  65, 72, 52, 58, 42, 25, 13, 25, 29, 24, 19, 34, 27, 23, 27, 23, 20, 16, 11, 21, 4, 6, 9, 6, 8, 3, 6, 2, 5, 6, 16, 19, 12, 11, 12, 15, 22, 20, 18, 26, 17, 18, 17, 20, 20, 12, 9, 0, 11, 8, 33, 24, 35, 26, 32, 9, 7, 8, 10, 6, 10, 7, 9, 7, 8, 27, 23, 23, 21, 15, 11, 8, 12, 7, 14, 21, 18, 19, 16, 15, 15, 17, 12, 22, 19, 22, 26, 27, 37, 31, 12, 18, 17, 10, 12, 37, 44, 37, 41, 35, 40, 43, 40, 36, 42, 22, 23, 24, 25, 20 |
  71, 79, 59, 66, 50, 18, 6, 18, 21, 16, 21, 31, 25, 25, 27, 30, 27, 22, 18, 28, 10, 13, 14, 12, 12, 11, 13, 9, 11, 14, 17, 20, 12, 15, 9, 15, 21, 17, 18, 23, 24, 26, 24, 28, 28, 3, 5, 7, 0, 5, 41, 32, 43, 33, 39, 17, 14, 16, 18, 13, 18, 15, 17, 15, 16, 20, 16, 17, 14, 8, 17, 14, 19, 12, 20, 27, 23, 26, 23, 22, 21, 22, 17, 28, 25, 29, 33, 35, 44, 38, 17, 22, 22, 16, 19, 44, 51, 44, 48, 42, 47, 51, 48, 43, 50, 26, 28, 28, 31, 24 |
  67, 75, 56, 62, 46, 20, 10, 21, 24, 19, 22, 34, 28, 26, 29, 28, 25, 21, 16, 26, 6, 10, 10, 8, 8, 8, 11, 7, 9, 11, 18, 21, 14, 15, 11, 17, 24, 20, 19, 26, 21, 22, 22, 25, 25, 6, 10, 7, 6, 0, 37, 28, 39, 31, 36, 15, 12, 13, 15, 11, 14, 12, 14, 12, 12, 24, 20, 21, 18, 12, 16, 12, 17, 12, 19, 23, 19, 22, 19, 18, 20, 21, 16, 27, 24, 25, 29, 31, 40, 34, 13, 18, 18, 12, 15, 40, 47, 40, 44, 38, 44, 47, 44, 40, 46, 26, 28, 28, 30, 24 |
  43, 40, 22, 27, 14, 56, 46, 57, 61, 56, 37, 57, 51, 40, 46, 21, 23, 24, 23, 19, 32, 28, 30, 30, 32, 30, 29, 32, 32, 28, 39, 41, 40, 32, 42, 41, 47, 47, 41, 53, 17, 16, 18, 13, 14, 44, 41, 33, 41, 37, 0, 8, 3, 10, 9, 26, 28, 25, 23, 30, 23, 27, 24, 27, 25, 58, 55, 54, 53, 46, 28, 30, 24, 32, 25, 22, 24, 20, 22, 20, 27, 30, 30, 25, 23, 15, 19, 12, 11, 17, 28, 30, 26, 27, 24, 17, 20, 14, 21, 20, 12, 11, 8, 7, 10, 34, 29, 32, 26, 35 |
  50, 50, 31, 36, 22, 47, 36, 48, 52, 47, 28, 49, 42, 32, 38, 15, 15, 15, 14, 12, 23, 19, 21, 22, 24, 21, 20, 23, 22, 18, 30, 32, 30, 22, 32, 32, 38, 38, 32, 44, 8, 8, 9, 5, 5, 35, 32, 24, 32, 28, 10, 0, 11, 9, 14, 17, 19, 16, 14, 21, 15, 17, 15, 17, 17, 49, 46, 45, 43, 37, 18, 21, 15, 23, 16, 17, 19, 14, 15, 13, 18, 21, 20, 18, 15, 11, 17, 11, 17, 18, 20, 23, 20, 19, 16, 21, 26, 19, 26, 22, 20, 20, 17, 15, 19, 26, 22, 24, 19, 27 |
  46, 40, 22, 27, 16, 58, 48, 59, 63, 58, 37, 57, 52, 40, 46, 21, 22, 24, 25, 19, 34, 30, 32, 33, 34, 32, 31, 34, 33, 30, 40, 41, 41, 32, 43, 42, 47, 48, 42, 53, 19, 18, 20, 16, 16, 46, 43, 35, 43, 39, 6, 11, 0, 8, 13, 28, 30, 27, 25, 31, 26, 29, 26, 28, 28, 60, 57, 55, 54, 48, 29, 31, 25, 33, 26, 25, 28, 23, 25, 23, 28, 30, 30, 25, 23, 19, 23, 15, 14, 20, 31, 33, 30, 30, 26, 20, 22, 17, 24, 23, 15, 11, 6, 10, 8, 33, 28, 31, 25, 35 |
  57, 53, 35, 40, 27, 50, 37, 51, 54, 48, 24, 44, 39, 27, 33, 8, 10, 12, 16, 6, 26, 22, 26, 25, 28, 23, 21, 24, 23, 20, 27, 29, 29, 21, 32, 30, 34, 36, 30, 41, 12, 14, 9, 13, 9, 37, 32, 26, 33, 31, 13, 10, 8, 0, 18, 17, 19, 18, 16, 21, 19, 20, 18, 19, 20, 48, 46, 43, 43, 37, 17, 20, 15, 22, 14, 25, 25, 22, 22, 18, 15, 17, 19, 12, 11, 19, 25, 19, 24, 26, 26, 30, 27, 24, 21, 28, 33, 26, 33, 30, 26, 24, 18, 21, 21, 20, 15, 18, 12, 22 |
  38, 40, 20, 27, 11, 53, 45, 55, 58, 54, 40, 60, 54, 44, 49, 26, 27, 27, 24, 23, 30, 27, 27, 28, 29, 29, 29, 32, 32, 27, 41, 43, 41, 33, 42, 43, 49, 49, 44, 55, 17, 15, 21, 13, 16, 43, 41, 32, 39, 36, 11, 13, 13, 18, 0, 27, 28, 26, 23, 30, 22, 26, 24, 27, 24, 58, 55, 54, 52, 46, 29, 31, 26, 33, 27, 16, 20, 15, 18, 18, 30, 33, 31, 30, 27, 11, 12, 6, 6, 9, 24, 25, 22, 24, 21, 9, 14, 7, 14, 12, 8, 14, 14, 5, 15, 38, 34, 36, 31, 39 |
  63, 66, 47, 53, 37, 34, 21, 34, 37, 32, 15, 34, 27, 19, 24, 14, 11, 7, 4, 12, 11, 8, 13, 11, 14, 7, 4, 8, 6, 5, 15, 17, 14, 7, 16, 16, 22, 22, 17, 28, 11, 13, 9, 15, 13, 20, 16, 9, 17, 15, 26, 17, 28, 17, 27, 0, 3, 5, 7, 4, 8, 5, 6, 3, 8, 33, 30, 28, 27, 21, 3, 4, 3, 6, 5, 21, 19, 18, 16, 12, 7, 10, 6, 14, 10, 19, 25, 24, 32, 29, 15, 21, 19, 13, 11, 34, 40, 33, 38, 33, 35, 37, 33, 30, 35, 16, 15, 17, 17, 15 |
  64, 67, 48, 54, 39, 31, 19, 32, 35, 29, 15, 34, 27, 20, 25, 17, 14, 9, 5, 15, 9, 7, 12, 9, 12, 5, 2, 6, 4, 3, 14, 17, 13, 7, 14, 15, 22, 21, 17, 27, 12, 14, 11, 16, 14, 18, 14, 7, 14, 12, 28, 19, 30, 19, 28, 3, 0, 5, 7, 2, 8, 4, 6, 2, 7, 31, 28, 27, 25, 19, 5, 3, 5, 5, 7, 21, 18, 18, 16, 13, 9, 11, 7, 16, 12, 20, 25, 25, 33, 29, 14, 20, 18, 11, 11, 35, 41, 34, 39, 34, 36, 38, 35, 32, 37, 18, 17, 18, 19, 16 |
  61, 65, 45, 51, 36, 33, 21, 33, 37, 31, 18, 36, 30, 22, 27, 16, 14, 9, 3, 14, 9, 6, 11, 9, 11, 6, 4, 8, 7, 3, 17, 20, 16, 9, 17, 18, 25, 24, 19, 30, 9, 11, 9, 13, 12, 20, 16, 8, 16, 13, 25, 16, 27, 18, 26, 5, 4, 0, 3, 4, 5, 3, 3, 2, 5, 33, 30, 29, 28, 21, 6, 6, 5, 8, 8, 18, 16, 15, 13, 10, 10, 13, 9, 16, 12, 17, 22, 22, 31, 26, 12, 18, 16, 10, 8, 32, 38, 31, 36, 31, 34, 36, 32, 29, 34, 19, 18, 20, 19, 18 |
  59, 63, 43, 49, 34, 34, 23, 35, 39, 33, 19, 38, 32, 24, 29, 16, 13, 9, 2, 13, 10, 6, 11, 9, 12, 7, 7, 10, 9, 5, 19, 22, 18, 11, 19, 20, 27, 26, 21, 32, 7, 9, 8, 11, 10, 21, 18, 10, 18, 15, 23, 14, 25, 16, 23, 8, 6, 2, 0, 7, 4, 4, 2, 4, 5, 36, 32, 31, 30, 23, 8, 8, 5, 10, 8, 17, 15, 14, 12, 8, 11, 14, 10, 16, 12, 15, 20, 20, 28, 24, 12, 17, 15, 9, 7, 30, 36, 29, 34, 29, 31, 34, 30, 27, 32, 20, 18, 20, 19, 19 |
  66, 69, 50, 56, 41, 30, 17, 30, 34, 28, 14, 32, 25, 18, 23, 18, 15, 10, 7, 16, 9, 8, 13, 10, 12, 5, 2, 5, 3, 4, 12, 15, 11, 5, 12, 13, 20, 19, 15, 25, 14, 16, 12, 18, 16, 16, 12, 6, 13, 11, 30, 21, 31, 21, 30, 4, 1, 5, 6, 0, 10, 6, 8, 4, 9, 29, 26, 25, 23, 17, 5, 2, 7, 3, 8, 23, 20, 20, 18, 15, 9, 11, 6, 16, 13, 22, 27, 27, 35, 31, 15, 21, 20, 13, 12, 37, 43, 36, 41, 36, 38, 40, 36, 34, 39, 17, 17, 18, 19, 15 |
  56, 62, 42, 48, 33, 33, 23, 34, 38, 33, 22, 41, 34, 27, 32, 19, 17, 13, 5, 16, 9, 5, 8, 8, 10, 8, 9, 11, 11, 6, 22, 25, 20, 14, 21, 23, 29, 28, 24, 34, 7, 8, 10, 11, 11, 21, 19, 10, 18, 14, 23, 15, 26, 19, 22, 8, 8, 5, 4, 10, 0, 6, 2, 9, 3, 37, 33, 33, 31, 24, 11, 11, 9, 12, 12, 13, 11, 11, 8, 5, 14, 17, 13, 20, 16, 12, 18, 18, 27, 22, 8, 14, 11, 6, 4, 28, 34, 27, 32, 26, 30, 33, 30, 26, 33, 24, 22, 24, 22, 23 |
  61, 66, 46, 52, 37, 31, 20, 32, 35, 30, 19, 37, 30, 23, 28, 18, 16, 11, 5, 16, 7, 4, 9, 7, 9, 4, 4, 6, 6, 2, 18, 21, 16, 10, 17, 18, 25, 24, 20, 30, 10, 12, 11, 14, 14, 18, 15, 7, 15, 12, 27, 17, 29, 20, 26, 5, 4, 3, 4, 6, 4, 0, 4, 4, 4, 33, 29, 29, 27, 20, 8, 7, 7, 8, 10, 17, 15, 15, 12, 9, 12, 14, 10, 18, 14, 17, 22, 22, 31, 26, 11, 16, 15, 8, 7, 32, 38, 31, 36, 31, 34, 37, 33, 30, 36, 21, 20, 21, 21, 20 |
  59, 63, 44, 50, 34, 33, 22, 34, 37, 32, 20, 39, 32, 25, 30, 18, 15, 11, 4, 15, 8, 5, 9, 8, 10, 6, 6, 9, 9, 4, 19, 22, 18, 12, 19, 20, 27, 26, 22, 32, 8, 10, 9, 12, 12, 20, 18, 9, 17, 14, 24, 15, 26, 18, 24, 6, 6, 3, 2, 8, 3, 6, 0, 7, 4, 35, 32, 31, 29, 23, 9, 8, 7, 10, 10, 16, 13, 13, 11, 7, 12, 15, 11, 18, 14, 15, 20, 20, 29, 24, 10, 16, 14, 8, 6, 30, 36, 29, 34, 29, 32, 35, 31, 28, 34, 22, 20, 22, 21, 21 |
  62, 66, 47, 53, 37, 32, 20, 32, 36, 30, 17, 35, 29, 21, 26, 17, 14, 9, 4, 15, 8, 5, 11, 9, 11, 5, 3, 6, 5, 2, 16, 19, 15, 8, 16, 17, 24, 23, 18, 29, 11, 13, 10, 15, 13, 18, 15, 7, 15, 12, 27, 17, 28, 19, 27, 3, 2, 2, 4, 4, 7, 5, 7, 0, 7, 32, 29, 28, 26, 20, 6, 5, 5, 7, 8, 19, 16, 16, 14, 11, 10, 12, 8, 16, 13, 18, 23, 23, 32, 27, 13, 18, 17, 10, 9, 33, 40, 32, 37, 32, 35, 37, 33, 31, 36, 19, 18, 19, 19, 18 |
  58, 64, 44, 50, 35, 31, 21, 32, 36, 31, 22, 40, 33, 26, 31, 20, 17, 13, 6, 17, 7, 3, 7, 6, 8, 6, 7, 9, 9, 5, 21, 24, 19, 13, 19, 21, 28, 27, 23, 33, 9, 10, 11, 13, 13, 19, 17, 8, 16, 12, 25, 17, 28, 20, 24, 8, 7, 5, 5, 9, 3, 6, 3, 9, 0, 35, 31, 31, 29, 22, 11, 10, 9, 11, 12, 14, 12, 12, 9, 7, 14, 17, 13, 20, 16, 14, 19, 20, 29, 23, 8, 14, 12, 5, 4, 29, 36, 29, 33, 28, 32, 35, 32, 28, 35, 23, 22, 24, 23, 22 |
  91, 98, 78, 84, 69, 19, 14, 17, 17, 12, 28, 23, 20, 29, 26, 43, 40, 37, 36, 43, 29, 32, 34, 32, 31, 29, 30, 27, 27, 31, 23, 23, 20, 28, 17, 20, 20, 15, 21, 16, 42, 44, 41, 46, 45, 17, 18, 27, 20, 24, 58, 49, 60, 48, 58, 33, 31, 33, 36, 29, 37, 33, 35, 32, 35, 0, 5, 9, 8, 15, 32, 29, 35, 27, 35, 47, 43, 45, 42, 41, 34, 33, 30, 40, 39, 48, 52, 54, 63, 57, 37, 41, 42, 36, 38, 63, 70, 63, 67, 61, 66, 69, 65, 62, 67, 34, 38, 37, 42, 31 |
  87, 94, 75, 81, 65, 15, 10, 13, 14, 8, 27, 25, 22, 29, 27, 41, 38, 35, 33, 41, 25, 28, 30, 28, 27, 26, 27, 23, 24, 28, 22, 23, 18, 26, 15, 19, 21, 15, 21, 18, 39, 41, 38, 43, 42, 13, 15, 23, 16, 20, 55, 46, 57, 46, 55, 30, 28, 30, 32, 26, 33, 29, 32, 29, 31, 5, 0, 11, 4, 12, 29, 26, 32, 24, 33, 43, 39, 42, 39, 37, 32, 31, 28, 39, 37, 45, 48, 50, 60, 53, 33, 37, 37, 32, 34, 59, 66, 59, 63, 57, 63, 66, 62, 59, 64, 34, 37, 36, 41, 30 |
  88, 93, 74, 80, 65, 22, 13, 20, 21, 15, 22, 19, 15, 23, 21, 38, 35, 32, 31, 38, 26, 29, 31, 29, 29, 25, 25, 23, 23, 27, 17, 18, 15, 23, 13, 14, 14, 9, 16, 11, 38, 40, 36, 42, 40, 16, 14, 23, 17, 21, 54, 45, 55, 43, 54, 28, 27, 29, 31, 25, 33, 29, 31, 28, 31, 5, 8, 0, 9, 11, 27, 24, 30, 22, 30, 44, 40, 42, 39, 37, 29, 28, 25, 35, 33, 45, 49, 50, 59, 54, 34, 39, 39, 33, 34, 60, 66, 60, 64, 58, 62, 64, 60, 58, 63, 29, 33, 31, 37, 25 |
  85, 92, 72, 79, 63, 16, 8, 15, 15, 10, 25, 24, 20, 26, 25, 39, 36, 32, 30, 38, 23, 26, 28, 26, 25, 23, 24, 21, 22, 26, 19, 20, 16, 23, 12, 16, 18, 13, 18, 16, 36, 38, 35, 41, 39, 11, 12, 21, 14, 18, 53, 43, 54, 43, 52, 27, 25, 28, 30, 23, 31, 27, 29, 26, 29, 8, 4, 11, 0, 10, 27, 24, 29, 22, 30, 41, 37, 39, 36, 35, 29, 29, 26, 36, 34, 42, 46, 48, 57, 51, 31, 35, 35, 30, 32, 57, 64, 57, 61, 55, 60, 63, 59, 56, 62, 31, 34, 33, 38, 28 |
  79, 85, 66, 72, 56, 18, 4, 17, 20, 13, 19, 24, 19, 22, 22, 32, 29, 25, 23, 32, 17, 20, 22, 20, 20, 17, 18, 14, 15, 19, 14, 16, 10, 17, 6, 11, 16, 10, 14, 16, 30, 32, 29, 34, 33, 7, 6, 15, 8, 12, 46, 37, 48, 37, 46, 21, 19, 21, 23, 17, 24, 20, 23, 20, 22, 12, 10, 11, 9, 0, 20, 17, 23, 15, 23, 35, 31, 33, 30, 29, 23, 23, 19, 30, 28, 36, 40, 41, 51, 45, 25, 30, 30, 24, 26, 51, 58, 51, 55, 49, 54, 57, 53, 50, 55, 26, 29, 28, 32, 23 |
  65, 67, 48, 54, 39, 34, 21, 35, 38, 32, 12, 32, 25, 16, 22, 13, 10, 6, 7, 12, 13, 11, 16, 14, 16, 9, 5, 9, 7, 7, 13, 15, 13, 5, 15, 14, 20, 20, 15, 26, 13, 15, 10, 17, 14, 20, 15, 11, 17, 16, 28, 18, 29, 17, 29, 3, 5, 6, 8, 5, 11, 8, 9, 6, 11, 32, 29, 27, 27, 20, 0, 5, 8, 8, 11, 24, 21, 21, 19, 15, 5, 7, 3, 12, 9, 21, 27, 26, 34, 31, 18, 24, 22, 15, 14, 36, 42, 35, 41, 36, 37, 38, 34, 32, 36, 13, 13, 14, 15, 12 |
  66, 70, 50, 56, 41, 31, 18, 31, 34, 29, 13, 31, 24, 17, 22, 17, 14, 9, 8, 15, 10, 9, 14, 12, 14, 6, 3, 6, 3, 5, 12, 14, 11, 4, 12, 13, 19, 18, 14, 25, 14, 17, 12, 19, 16, 17, 12, 8, 14, 12, 30, 21, 31, 20, 31, 4, 3, 6, 8, 2, 11, 7, 8, 5, 10, 29, 26, 24, 24, 17, 4, 0, 9, 4, 12, 24, 21, 21, 19, 15, 8, 9, 5, 15, 12, 22, 28, 27, 36, 32, 17, 22, 21, 14, 14, 37, 44, 37, 42, 36, 39, 40, 36, 34, 39, 15, 16, 17, 18, 14 |
  62, 64, 45, 51, 36, 36, 23, 36, 40, 34, 15, 35, 29, 19, 25, 12, 10, 5, 4, 10, 13, 10, 15, 13, 15, 9, 6, 10, 9, 6, 16, 18, 16, 8, 18, 18, 24, 24, 18, 29, 9, 12, 6, 13, 11, 22, 18, 12, 19, 17, 24, 15, 25, 15, 26, 3, 5, 5, 5, 7, 9, 7, 7, 5, 9, 35, 32, 30, 29, 23, 7, 10, 0, 13, 3, 21, 19, 18, 16, 12, 6, 9, 6, 12, 8, 18, 24, 22, 31, 28, 16, 22, 20, 14, 12, 33, 39, 32, 37, 32, 33, 35, 31, 29, 33, 16, 14, 16, 15, 15 |
  68, 72, 52, 58, 43, 30, 16, 30, 33, 27, 12, 29, 23, 16, 21, 18, 15, 11, 10, 17, 10, 10, 15, 12, 14, 7, 4, 5, 3, 7, 10, 13, 9, 4, 10, 11, 18, 17, 12, 23, 16, 18, 14, 20, 18, 16, 10, 7, 12, 12, 32, 23, 33, 22, 33, 6, 5, 8, 10, 3, 12, 8, 10, 7, 11, 27, 24, 22, 22, 15, 6, 4, 13, 0, 13, 25, 22, 22, 20, 17, 9, 10, 5, 16, 13, 24, 29, 29, 38, 34, 17, 23, 22, 15, 15, 39, 46, 38, 43, 38, 41, 42, 38, 36, 41, 16, 17, 17, 19, 14 |
  64, 65, 46, 52, 37, 37, 24, 38, 41, 35, 13, 33, 27, 17, 23, 10, 7, 3, 7, 9, 15, 13, 18, 16, 18, 11, 8, 12, 10, 9, 15, 17, 16, 7, 18, 17, 22, 23, 17, 28, 11, 14, 7, 15, 12, 24, 19, 14, 20, 19, 25, 16, 26, 14, 27, 5, 7, 8, 8, 8, 12, 10, 10, 8, 12, 35, 33, 30, 30, 23, 6, 10, 4, 12, 0, 24, 22, 21, 19, 15, 3, 6, 5, 9, 6, 20, 27, 24, 32, 30, 19, 25, 23, 17, 15, 35, 41, 34, 39, 35, 35, 36, 31, 30, 33, 13, 11, 13, 12, 12 |
  45, 54, 35, 41, 25, 39, 33, 40, 44, 41, 35, 54, 47, 40, 45, 29, 27, 24, 18, 25, 18, 16, 14, 16, 16, 20, 21, 22, 23, 19, 35, 38, 33, 27, 32, 35, 42, 40, 37, 47, 14, 12, 19, 13, 17, 30, 30, 21, 27, 23, 22, 17, 25, 25, 16, 21, 21, 18, 17, 23, 13, 17, 16, 19, 14, 47, 43, 44, 41, 35, 24, 24, 21, 25, 24, 0, 5, 8, 7, 9, 27, 30, 26, 30, 27, 7, 6, 11, 20, 11, 10, 9, 6, 12, 11, 18, 24, 18, 21, 15, 23, 29, 29, 21, 30, 36, 33, 36, 33, 36 |
  49, 58, 39, 45, 29, 35, 29, 36, 40, 36, 33, 51, 44, 37, 42, 28, 26, 23, 16, 25, 14, 13, 10, 12, 12, 16, 18, 19, 20, 16, 32, 35, 29, 24, 29, 32, 39, 37, 34, 43, 14, 12, 19, 14, 17, 26, 26, 18, 23, 19, 24, 19, 28, 25, 20, 19, 18, 16, 15, 20, 11, 15, 13, 16, 12, 43, 39, 40, 37, 31, 21, 21, 19, 22, 22, 4, 0, 8, 6, 9, 25, 28, 24, 29, 25, 10, 10, 15, 24, 15, 6, 6, 2, 8, 8, 22, 29, 23, 25, 19, 27, 33, 32, 24, 33, 34, 32, 34, 32, 33 |
  47, 54, 35, 41, 25, 39, 32, 40, 44, 40, 32, 51, 45, 37, 42, 25, 24, 21, 15, 22, 17, 14, 13, 14, 15, 17, 19, 20, 21, 16, 32, 35, 30, 24, 30, 33, 40, 38, 34, 45, 11, 8, 16, 10, 14, 29, 28, 19, 26, 22, 20, 14, 23, 22, 15, 18, 18, 15, 14, 20, 11, 15, 13, 16, 12, 45, 42, 42, 39, 33, 21, 21, 18, 22, 21, 6, 8, 0, 2, 5, 23, 26, 23, 27, 23, 5, 8, 10, 19, 12, 10, 10, 7, 10, 8, 18, 25, 19, 22, 16, 23, 28, 27, 20, 28, 33, 30, 32, 29, 32 |
  49, 57, 37, 44, 28, 36, 29, 37, 41, 37, 30, 49, 42, 35, 40, 25, 23, 20, 13, 21, 14, 11, 10, 11, 12, 15, 16, 17, 18, 14, 30, 32, 28, 22, 28, 30, 37, 35, 32, 42, 11, 8, 15, 10, 14, 26, 26, 16, 23, 19, 22, 15, 25, 22, 18, 16, 16, 13, 12, 18, 8, 12, 11, 14, 9, 42, 39, 39, 36, 30, 19, 19, 16, 20, 19, 7, 7, 3, 0, 3, 22, 25, 21, 26, 22, 7, 10, 13, 22, 15, 7, 9, 6, 7, 6, 21, 28, 22, 25, 19, 25, 31, 29, 22, 31, 31, 29, 31, 29, 31 |
  52, 58, 38, 44, 28, 36, 27, 37, 41, 37, 27, 46, 39, 31, 36, 21, 19, 16, 9, 17, 12, 9, 10, 10, 12, 12, 13, 15, 15, 11, 26, 29, 25, 19, 25, 27, 34, 33, 29, 39, 7, 5, 11, 8, 11, 25, 24, 15, 22, 18, 20, 13, 23, 18, 18, 12, 13, 10, 8, 15, 5, 9, 7, 11, 7, 41, 37, 37, 35, 29, 15, 15, 12, 17, 15, 11, 10, 8, 6, 0, 18, 21, 18, 22, 18, 8, 13, 13, 23, 17, 8, 12, 9, 7, 4, 23, 30, 23, 27, 22, 26, 30, 28, 22, 29, 27, 25, 27, 25, 27 |
  67, 67, 48, 54, 40, 38, 24, 38, 41, 35, 10, 31, 25, 14, 20, 10, 7, 4, 9, 10, 17, 15, 20, 18, 20, 13, 9, 13, 11, 11, 13, 14, 14, 6, 18, 15, 20, 21, 15, 26, 14, 17, 10, 18, 14, 24, 18, 15, 21, 20, 27, 18, 28, 15, 30, 7, 9, 10, 11, 9, 14, 12, 12, 10, 14, 34, 32, 29, 29, 23, 5, 8, 6, 9, 3, 27, 25, 23, 22, 18, 0, 5, 5, 10, 7, 23, 30, 27, 35, 33, 22, 27, 25, 19, 17, 37, 43, 36, 42, 37, 37, 38, 33, 33, 35, 10, 9, 10, 11, 10 |
  70, 69, 51, 56, 42, 39, 24, 39, 41, 35, 8, 28, 22, 11, 17, 11, 8, 7, 12, 11, 19, 17, 23, 20, 22, 15, 12, 15, 12, 13, 11, 12, 14, 7, 18, 14, 18, 20, 13, 24, 17, 20, 13, 21, 17, 25, 19, 17, 22, 21, 30, 21, 30, 17, 33, 10, 11, 13, 14, 11, 17, 14, 15, 12, 17, 33, 31, 28, 29, 23, 7, 9, 9, 10, 6, 30, 28, 26, 25, 21, 5, 0, 8, 13, 10, 26, 33, 30, 38, 36, 24, 30, 28, 22, 20, 40, 46, 39, 45, 40, 40, 40, 35, 35, 37, 7, 7, 8, 10, 7 |
  68, 69, 50, 56, 42, 34, 20, 34, 37, 31, 10, 29, 23, 14, 19, 14, 11, 7, 9, 13, 14, 13, 18, 15, 18, 10, 7, 10, 7, 9, 10, 13, 11, 3, 14, 12, 18, 18, 13, 24, 15, 18, 12, 19, 16, 20, 15, 12, 17, 16, 30, 20, 30, 19, 31, 6, 7, 9, 10, 6, 13, 10, 11, 8, 13, 30, 28, 25, 26, 19, 3, 5, 6, 5, 5, 26, 24, 23, 21, 18, 6, 8, 0, 15, 12, 24, 30, 28, 37, 33, 20, 26, 24, 18, 16, 39, 45, 38, 43, 38, 39, 40, 35, 34, 38, 12, 12, 13, 14, 10 |
  67, 64, 46, 51, 38, 45, 31, 45, 48, 42, 14, 33, 28, 16, 22, 4, 4, 8, 15, 7, 24, 21, 26, 24, 27, 20, 17, 20, 18, 18, 18, 19, 21, 14, 25, 21, 24, 27, 20, 31, 17, 20, 11, 20, 15, 31, 26, 22, 28, 27, 25, 18, 25, 12, 30, 14, 16, 16, 16, 16, 20, 18, 18, 16, 20, 40, 39, 35, 36, 30, 12, 15, 12, 16, 9, 30, 29, 27, 26, 22, 8, 13, 13, 0, 5, 26, 32, 28, 34, 34, 28, 33, 30, 25, 23, 38, 43, 36, 43, 39, 36, 35, 29, 31, 32, 9, 4, 7, 3, 11 |
  64, 63, 45, 50, 36, 42, 29, 43, 46, 40, 14, 34, 29, 17, 23, 5, 2, 4, 11, 5, 20, 17, 22, 21, 23, 16, 13, 17, 15, 14, 17, 18, 19, 11, 23, 20, 24, 26, 19, 30, 13, 16, 8, 16, 12, 28, 23, 19, 25, 24, 23, 15, 23, 11, 27, 10, 12, 12, 12, 13, 16, 14, 14, 13, 16, 39, 37, 33, 34, 28, 9, 12, 8, 13, 6, 27, 25, 23, 22, 18, 7, 10, 11, 8, 0, 22, 29, 25, 32, 31, 24, 29, 26, 21, 19, 35, 41, 34, 40, 36, 34, 34, 28, 29, 31, 11, 7, 10, 7, 12 |
  45, 51, 31, 37, 21, 43, 35, 44, 48, 44, 33, 52, 46, 37, 43, 23, 22, 20, 15, 20, 20, 17, 16, 18, 19, 20, 20, 22, 23, 18, 33, 36, 32, 25, 33, 34, 41, 40, 36, 46, 10, 7, 15, 7, 12, 33, 31, 22, 29, 25, 15, 11, 19, 19, 11, 19, 20, 17, 15, 22, 12, 17, 15, 18, 14, 48, 45, 45, 42, 36, 21, 22, 18, 24, 20, 7, 10, 5, 7, 8, 23, 26, 24, 26, 22, 0, 5, 8, 12, 8, 14, 15, 12, 14, 11, 16, 22, 15, 20, 15, 19, 24, 22, 15, 24, 32, 29, 32, 28, 32 |
  40, 49, 29, 36, 20, 44, 38, 46, 50, 46, 39, 58, 52, 43, 49, 30, 29, 27, 21, 27, 23, 21, 19, 21, 21, 24, 26, 27, 28, 23, 39, 42, 37, 31, 37, 40, 47, 45, 41, 52, 17, 13, 22, 14, 18, 36, 35, 26, 33, 29, 19, 17, 23, 25, 12, 25, 25, 22, 20, 27, 18, 22, 20, 23, 19, 52, 48, 49, 46, 40, 27, 28, 24, 29, 27, 6, 10, 8, 10, 13, 30, 33, 30, 32, 29, 6, 0, 11, 15, 6, 16, 14, 12, 17, 15, 12, 19, 13, 15, 10, 18, 25, 25, 16, 26, 39, 36, 38, 35, 39 |
  40, 45, 25, 32, 16, 48, 40, 50, 54, 49, 37, 57, 51, 41, 47, 25, 25, 24, 20, 22, 25, 22, 22, 23, 24, 25, 25, 28, 28, 23, 38, 40, 37, 30, 38, 39, 46, 45, 40, 51, 14, 11, 18, 10, 14, 38, 37, 27, 35, 31, 12, 11, 15, 19, 6, 24, 25, 22, 20, 27, 18, 22, 20, 23, 20, 54, 50, 50, 48, 41, 26, 27, 22, 29, 24, 11, 15, 10, 13, 13, 27, 30, 28, 28, 25, 6, 9, 0, 9, 7, 19, 19, 17, 19, 17, 11, 17, 10, 15, 11, 13, 19, 18, 10, 19, 36, 32, 35, 30, 36 |
  33, 35, 16, 22, 6, 58, 50, 59, 63, 59, 45, 65, 59, 48, 54, 31, 31, 31, 29, 28, 35, 32, 31, 33, 34, 34, 34, 37, 37, 33, 46, 48, 46, 38, 47, 48, 54, 54, 49, 60, 22, 20, 26, 18, 21, 48, 46, 37, 44, 40, 11, 17, 14, 24, 6, 32, 33, 31, 28, 35, 27, 31, 29, 32, 29, 63, 60, 59, 57, 51, 34, 36, 31, 38, 32, 20, 24, 19, 22, 23, 35, 38, 37, 34, 32, 13, 14, 7, 0, 10, 29, 28, 26, 29, 26, 7, 10, 4, 11, 11, 4, 11, 14, 4, 14, 43, 38, 41, 36, 44 |
  35, 44, 24, 31, 15, 50, 43, 51, 55, 51, 42, 62, 55, 46, 52, 32, 31, 30, 25, 28, 28, 26, 24, 26, 27, 29, 30, 32, 32, 28, 43, 45, 41, 35, 42, 44, 50, 49, 45, 56, 19, 16, 24, 15, 20, 41, 40, 31, 38, 34, 17, 18, 20, 26, 9, 29, 29, 26, 24, 31, 22, 26, 24, 27, 23, 57, 53, 54, 51, 45, 31, 32, 28, 34, 30, 11, 15, 12, 15, 17, 33, 36, 33, 34, 31, 9, 6, 6, 10, 0, 21, 19, 17, 22, 20, 7, 14, 8, 10, 5, 13, 21, 22, 12, 23, 42, 38, 41, 36, 42 |
  55, 64, 44, 50, 34, 29, 23, 31, 35, 31, 29, 45, 39, 33, 38, 27, 25, 21, 13, 24, 9, 8, 4, 6, 6, 11, 14, 14, 15, 12, 27, 30, 24, 20, 23, 27, 34, 31, 29, 38, 14, 13, 18, 16, 18, 20, 21, 12, 17, 13, 28, 20, 31, 26, 24, 15, 14, 12, 12, 15, 8, 11, 10, 13, 8, 37, 33, 34, 31, 25, 18, 17, 16, 17, 19, 10, 6, 10, 7, 8, 22, 24, 20, 28, 24, 14, 16, 19, 29, 21, 0, 4, 5, 3, 9, 28, 34, 28, 31, 25, 32, 37, 35, 29, 37, 31, 30, 31, 30, 30 |
  51, 63, 43, 49, 34, 31, 27, 33, 37, 33, 35, 51, 44, 39, 43, 32, 30, 26, 19, 29, 14, 14, 9, 12, 11, 17, 20, 19, 21, 18, 33, 36, 30, 26, 28, 32, 40, 37, 35, 43, 18, 17, 23, 19, 22, 24, 26, 18, 22, 18, 30, 23, 33, 30, 25, 21, 20, 18, 17, 21, 14, 16, 16, 18, 14, 41, 37, 39, 35, 30, 24, 22, 22, 23, 25, 9, 6, 10, 9, 12, 27, 30, 26, 33, 29, 15, 14, 19, 28, 19, 6, 0, 5, 9, 13, 26, 32, 27, 28, 22, 31, 38, 37, 29, 38, 37, 35, 37, 36, 36 |
  50, 60, 41, 47, 31, 33, 28, 35, 38, 35, 33, 50, 44, 37, 42, 29, 27, 24, 16, 26, 14, 13, 9, 11, 11, 16, 18, 18, 20, 16, 31, 35, 29, 24, 28, 32, 39, 36, 34, 43, 15, 13, 20, 15, 19, 25, 26, 17, 22, 18, 26, 20, 30, 27, 22, 19, 18, 16, 15, 20, 11, 15, 14, 17, 12, 42, 37, 39, 35, 30, 22, 21, 20, 22, 23, 6, 2, 7, 6, 9, 25, 28, 24, 30, 26, 12, 12, 17, 26, 17, 6, 6, 0, 7, 11, 24, 30, 24, 26, 21, 29, 35, 34, 26, 35, 35, 33, 35, 33, 34 |
  56, 64, 44, 51, 35, 30, 22, 31, 35, 30, 26, 43, 37, 31, 35, 25, 22, 18, 11, 22, 7, 6, 3, 5, 5, 9, 12, 11, 13, 9, 24, 28, 22, 18, 21, 25, 32, 29, 27, 36, 12, 12, 16, 15, 16, 19, 19, 10, 16, 12, 27, 19, 30, 24, 24, 13, 11, 10, 9, 13, 6, 8, 8, 10, 5, 36, 32, 33, 30, 24, 15, 14, 14, 15, 17, 12, 8, 10, 7, 7, 19, 22, 18, 25, 21, 14, 17, 19, 29, 22, 6, 9, 8, 0, 7, 28, 35, 28, 32, 26, 32, 37, 34, 29, 36, 28, 27, 29, 28, 27 |
  54, 61, 41, 48, 32, 33, 24, 34, 38, 33, 25, 44, 37, 30, 35, 22, 20, 16, 9, 19, 9, 6, 6, 7, 9, 10, 11, 12, 13, 9, 24, 27, 22, 17, 23, 25, 32, 30, 27, 37, 9, 8, 13, 11, 13, 22, 21, 12, 19, 15, 24, 16, 26, 21, 21, 11, 11, 8, 7, 12, 4, 7, 6, 9, 4, 38, 34, 34, 32, 26, 14, 14, 12, 15, 15, 11, 8, 8, 6, 4, 17, 20, 16, 23, 19, 11, 15, 17, 26, 20, 9, 11, 10, 4, 0, 26, 33, 26, 30, 24, 29, 33, 31, 26, 33, 27, 25, 27, 25, 26 |
  30, 37, 18, 25, 10, 56, 49, 58, 62, 58, 47, 67, 61, 51, 57, 35, 35, 34, 30, 32, 34, 32, 30, 32, 33, 35, 36, 38, 38, 33, 48, 51, 47, 40, 48, 49, 56, 55, 50, 61, 24, 21, 28, 20, 24, 47, 46, 37, 44, 40, 17, 21, 20, 28, 9, 34, 35, 32, 30, 37, 28, 32, 30, 33, 29, 63, 59, 60, 57, 51, 36, 37, 33, 39, 35, 18, 22, 18, 21, 23, 37, 40, 39, 38, 35, 16, 12, 11, 7, 7, 28, 26, 24, 28, 26, 0, 7, 5, 6, 7, 8, 17, 20, 10, 20, 46, 42, 45, 40, 46 |
  24, 31, 13, 19, 8, 63, 56, 64, 68, 64, 53, 73, 67, 57, 63, 40, 40, 40, 37, 37, 41, 38, 37, 39, 40, 41, 42, 44, 44, 40, 54, 57, 54, 46, 54, 56, 62, 62, 57, 68, 30, 28, 34, 26, 30, 54, 53, 44, 51, 47, 20, 26, 22, 33, 14, 40, 41, 38, 36, 43, 34, 38, 36, 40, 36, 70, 66, 66, 64, 58, 42, 44, 39, 46, 41, 24, 29, 25, 28, 30, 43, 46, 45, 43, 41, 22, 19, 17, 10, 14, 34, 32, 30, 35, 33, 10, 0, 11, 9, 11, 8, 16, 21, 13, 20, 51, 47, 50, 45, 52 |
  31, 36, 17, 23, 8, 57, 49, 58, 62, 58, 46, 66, 60, 50, 56, 33, 33, 33, 29, 30, 34, 32, 31, 32, 33, 35, 35, 37, 37, 33, 47, 50, 46, 39, 47, 49, 55, 54, 50, 61, 23, 20, 27, 19, 22, 47, 46, 37, 44, 40, 14, 19, 17, 26, 7, 33, 34, 31, 29, 36, 27, 31, 29, 32, 29, 63, 59, 60, 57, 51, 35, 37, 32, 38, 34, 18, 23, 19, 22, 23, 36, 39, 38, 36, 34, 15, 13, 10, 4, 8, 28, 27, 24, 28, 26, 6, 8, 0, 10, 12, 6, 14, 17, 7, 17, 44, 40, 43, 38, 45 |
  25, 36, 18, 24, 12, 59, 53, 60, 64, 61, 52, 72, 65, 56, 62, 40, 40, 39, 35, 37, 38, 36, 34, 36, 36, 39, 40, 42, 42, 38, 53, 55, 51, 45, 52, 54, 60, 59, 55, 66, 29, 26, 33, 25, 29, 51, 50, 41, 48, 44, 21, 26, 24, 33, 14, 38, 39, 36, 34, 41, 32, 36, 34, 37, 33, 67, 63, 64, 61, 55, 41, 42, 37, 43, 39, 21, 25, 22, 25, 27, 42, 45, 43, 43, 40, 20, 15, 15, 11, 10, 31, 28, 26, 32, 30, 6, 5, 10, 0, 6, 11, 20, 24, 15, 23, 51, 47, 49, 45, 51 |
  31, 41, 22, 29, 15, 53, 47, 55, 59, 55, 47, 67, 60, 51, 57, 36, 36, 34, 30, 33, 32, 30, 28, 30, 31, 33, 34, 36, 37, 32, 47, 50, 46, 39, 46, 48, 55, 54, 50, 60, 24, 21, 29, 20, 25, 45, 44, 35, 42, 38, 20, 22, 23, 30, 12, 33, 34, 31, 29, 36, 26, 31, 29, 32, 28, 61, 57, 58, 55, 49, 36, 36, 32, 38, 35, 15, 19, 16, 19, 22, 37, 40, 38, 39, 36, 15, 10, 11, 11, 5, 25, 22, 21, 26, 24, 7, 8, 11, 6, 0, 13, 21, 24, 14, 24, 46, 43, 45, 41, 47 |
  32, 32, 13, 19, 3, 61, 53, 62, 66, 62, 47, 68, 61, 51, 57, 33, 34, 34, 32, 30, 38, 35, 34, 36, 37, 37, 37, 40, 40, 35, 49, 51, 49, 41, 50, 51, 56, 57, 51, 62, 25, 23, 28, 21, 24, 51, 49, 40, 47, 44, 12, 20, 15, 26, 8, 35, 36, 34, 31, 38, 30, 34, 32, 35, 32, 66, 63, 62, 60, 54, 37, 39, 33, 41, 35, 23, 27, 23, 25, 26, 37, 40, 39, 36, 34, 19, 18, 13, 4, 13, 32, 31, 29, 32, 29, 8, 8, 6, 11, 13, 0, 10, 13, 8, 12, 45, 40, 43, 37, 46 |
  37, 30, 12, 17, 8, 66, 56, 67, 71, 66, 47, 67, 62, 50, 56, 31, 33, 34, 34, 29, 42, 38, 39, 40, 41, 40, 40, 43, 42, 38, 50, 51, 50, 42, 52, 52, 57, 58, 52, 63, 27, 26, 29, 23, 25, 54, 52, 43, 51, 47, 11, 20, 11, 24, 14, 37, 38, 36, 34, 40, 33, 37, 35, 37, 35, 69, 66, 64, 63, 57, 38, 40, 35, 42, 36, 29, 33, 28, 31, 30, 38, 40, 40, 35, 34, 24, 25, 19, 11, 21, 37, 38, 35, 37, 33, 17, 16, 14, 20, 21, 8, 0, 5, 12, 4, 44, 39, 42, 35, 45 |
  43, 35, 18, 23, 13, 63, 53, 64, 68, 63, 42, 62, 57, 45, 51, 25, 27, 29, 30, 24, 39, 35, 37, 37, 39, 37, 36, 39, 38, 34, 45, 46, 46, 38, 48, 47, 52, 53, 47, 58, 24, 23, 25, 20, 21, 51, 48, 40, 48, 44, 8, 17, 6, 18, 14, 33, 35, 32, 30, 36, 30, 33, 31, 33, 32, 65, 62, 60, 59, 53, 34, 36, 31, 38, 31, 29, 32, 27, 29, 28, 33, 35, 35, 29, 28, 22, 25, 18, 14, 22, 35, 37, 34, 34, 31, 20, 21, 17, 24, 24, 13, 10, 0, 15, 8, 38, 33, 36, 29, 40 |
  37, 36, 17, 23, 8, 58, 49, 59, 63, 58, 42, 63, 57, 46, 52, 28, 29, 29, 27, 25, 34, 31, 31, 32, 34, 33, 33, 36, 35, 31, 44, 46, 44, 36, 46, 46, 52, 52, 47, 58, 21, 19, 23, 16, 19, 47, 45, 36, 43, 40, 7, 15, 10, 21, 5, 30, 32, 29, 27, 34, 26, 30, 28, 31, 28, 62, 59, 58, 56, 50, 32, 34, 29, 36, 30, 21, 24, 20, 22, 22, 33, 35, 34, 31, 29, 15, 16, 10, 4, 12, 29, 29, 26, 29, 26, 10, 13, 7, 15, 14, 7, 13, 15, 0, 15, 40, 35, 38, 32, 41 |
  41, 32, 16, 20, 12, 65, 55, 66, 70, 65, 44, 65, 59, 47, 53, 28, 30, 32, 32, 26, 41, 37, 39, 39, 41, 39, 38, 42, 41, 37, 47, 49, 48, 40, 51, 50, 54, 56, 50, 61, 26, 25, 27, 22, 23, 53, 50, 42, 50, 46, 10, 19, 8, 21, 15, 35, 37, 34, 32, 39, 33, 36, 34, 36, 35, 67, 64, 63, 62, 55, 36, 39, 33, 41, 33, 30, 33, 28, 31, 29, 35, 37, 38, 32, 31, 24, 26, 19, 14, 23, 37, 38, 35, 36, 33, 20, 20, 17, 23, 24, 12, 9, 1, 14, 0, 41, 36, 38, 32, 42 |
  75, 73, 55, 60, 47, 43, 28, 42, 45, 38, 7, 25, 20, 7, 13, 13, 12, 13, 19, 15, 25, 24, 29, 26, 29, 21, 18, 20, 18, 20, 12, 11, 16, 12, 21, 15, 16, 20, 13, 23, 23, 26, 18, 27, 22, 29, 22, 22, 26, 26, 34, 26, 33, 20, 38, 16, 18, 19, 20, 17, 24, 21, 22, 19, 23, 34, 34, 29, 31, 26, 13, 15, 16, 16, 13, 36, 34, 33, 31, 27, 10, 7, 12, 9, 11, 32, 39, 36, 43, 42, 31, 37, 35, 28, 27, 46, 51, 44, 51, 46, 45, 44, 38, 40, 41, 0, 6, 3, 10, 4 |
  71, 68, 50, 55, 42, 45, 31, 45, 48, 41, 11, 30, 25, 13, 18, 8, 7, 10, 17, 11, 25, 23, 28, 26, 28, 21, 18, 21, 19, 19, 16, 16, 19, 13, 24, 19, 21, 24, 17, 28, 20, 23, 15, 23, 19, 31, 25, 23, 28, 28, 29, 22, 28, 15, 34, 15, 17, 18, 18, 17, 22, 20, 20, 18, 22, 38, 37, 33, 34, 29, 13, 16, 14, 17, 11, 33, 32, 30, 29, 25, 9, 7, 12, 4, 7, 29, 36, 32, 38, 38, 30, 35, 33, 27, 25, 42, 47, 40, 47, 43, 40, 39, 33, 35, 36, 6, 0, 3, 5, 8 |
  74, 70, 53, 58, 45, 45, 30, 44, 47, 41, 9, 27, 23, 10, 16, 11, 10, 12, 19, 13, 26, 24, 30, 27, 30, 22, 19, 22, 19, 20, 15, 14, 19, 14, 23, 18, 19, 23, 16, 26, 22, 25, 17, 26, 21, 31, 25, 24, 28, 28, 32, 24, 31, 18, 36, 17, 18, 20, 20, 18, 24, 21, 22, 19, 24, 37, 36, 31, 33, 28, 14, 17, 16, 17, 13, 36, 34, 32, 31, 27, 10, 8, 13, 7, 10, 32, 38, 35, 41, 41, 31, 37, 35, 29, 27, 45, 50, 43, 49, 45, 43, 42, 36, 38, 38, 3, 3, 0, 7, 6 |
  68, 64, 47, 52, 39, 48, 34, 48, 51, 45, 15, 34, 29, 17, 22, 5, 6, 10, 18, 9, 27, 24, 29, 27, 30, 23, 20, 23, 21, 21, 20, 20, 23, 16, 27, 23, 25, 28, 21, 32, 19, 22, 14, 22, 17, 34, 28, 25, 31, 30, 26, 19, 25, 12, 31, 17, 19, 19, 19, 19, 22, 21, 21, 19, 23, 42, 41, 37, 38, 32, 15, 18, 15, 19, 12, 33, 32, 29, 29, 25, 11, 10, 14, 3, 7, 28, 35, 30, 36, 36, 30, 36, 33, 28, 25, 40, 45, 38, 45, 41, 37, 35, 29, 32, 32, 10, 5, 7, 0, 12 |
  76, 74, 56, 62, 48, 40, 25, 39, 42, 35, 4, 23, 17, 5, 11, 15, 13, 13, 18, 17, 23, 22, 27, 25, 27, 20, 16, 18, 16, 18, 9, 8, 13, 10, 18, 12, 13, 17, 10, 20, 23, 26, 19, 27, 23, 26, 20, 20, 24, 24, 35, 27, 35, 22, 39, 15, 16, 18, 19, 15, 23, 20, 21, 18, 22, 31, 30, 25, 28, 23, 12, 14, 15, 14, 12, 36, 33, 32, 31, 27, 10, 7, 10, 11, 12, 32, 39, 36, 44, 42, 30, 36, 34, 27, 26, 46, 52, 45, 51, 47, 46, 45, 40, 41, 42, 4, 8, 6, 12, 0 |];

% Matrice temps pondérée (pour initialisation fenêtres)
temps_trajet = 
[|
  0, 10, 13, 11, 15, 63, 60, 65, 67, 66, 60, 76, 70, 63, 67, 50, 50, 50, 47, 48, 49, 47, 45, 47, 47, 50, 51, 52, 52, 49, 61, 63, 60, 54, 60, 62, 67, 66, 63, 70, 42, 40, 45, 38, 42, 58, 58, 51, 56, 53, 34, 39, 36, 44, 30, 50, 50, 48, 46, 52, 44, 48, 46, 49, 45, 71, 68, 69, 66, 62, 51, 52, 49, 53, 50, 35, 38, 37, 39, 41, 52, 55, 53, 52, 50, 35, 31, 31, 26, 27, 43, 40, 39, 44, 42, 24, 19, 24, 20, 24, 25, 29, 34, 29, 32, 59, 55, 58, 53, 59 |
  11, 0, 12, 7, 15, 72, 66, 74, 77, 73, 60, 76, 71, 62, 67, 47, 49, 50, 49, 46, 55, 52, 52, 53, 54, 54, 54, 56, 55, 52, 62, 63, 62, 56, 64, 64, 67, 68, 64, 72, 44, 42, 46, 41, 42, 64, 63, 56, 62, 59, 31, 39, 31, 41, 31, 52, 53, 51, 49, 54, 49, 51, 50, 52, 50, 77, 74, 73, 72, 67, 53, 55, 50, 56, 51, 42, 46, 42, 45, 45, 52, 54, 54, 50, 50, 40, 38, 36, 28, 34, 50, 49, 47, 50, 48, 29, 24, 28, 28, 32, 25, 24, 27, 28, 25, 57, 53, 55, 50, 58 |
  12, 10, 0, 4, 8, 57, 51, 58, 61, 58, 45, 62, 57, 48, 53, 33, 35, 35, 34, 31, 39, 37, 36, 38, 38, 39, 38, 41, 41, 37, 47, 49, 47, 41, 49, 49, 53, 53, 49, 58, 29, 27, 31, 25, 27, 49, 48, 41, 47, 44, 17, 24, 17, 28, 16, 37, 38, 36, 34, 39, 33, 36, 34, 37, 35, 61, 58, 58, 56, 52, 38, 39, 36, 41, 36, 27, 30, 27, 29, 30, 38, 40, 40, 36, 35, 24, 23, 20, 12, 19, 35, 34, 32, 35, 32, 14, 10, 13, 14, 17, 10, 10, 14, 13, 13, 43, 39, 41, 37, 44 |
  10, 7, 7, 0, 10, 62, 55, 63, 66, 63, 50, 66, 61, 52, 57, 38, 38, 40, 39, 36, 44, 41, 41, 42, 43, 44, 43, 45, 45, 42, 52, 53, 52, 46, 53, 53, 57, 58, 53, 63, 34, 32, 36, 30, 32, 54, 52, 46, 52, 49, 22, 28, 22, 31, 21, 41, 42, 40, 38, 44, 38, 41, 39, 41, 39, 66, 64, 63, 62, 56, 42, 44, 40, 46, 41, 32, 36, 32, 35, 35, 42, 44, 44, 40, 39, 29, 28, 25, 17, 24, 39, 39, 37, 40, 38, 19, 15, 18, 19, 23, 15, 13, 18, 18, 16, 47, 43, 45, 41, 49 |
  15, 15, 6, 10, 0, 50, 43, 51, 54, 50, 38, 55, 50, 41, 46, 27, 28, 28, 27, 25, 31, 29, 29, 30, 31, 31, 31, 33, 33, 30, 40, 42, 40, 34, 41, 41, 46, 46, 42, 51, 22, 20, 24, 18, 20, 41, 40, 33, 39, 36, 11, 17, 12, 22, 9, 29, 30, 28, 27, 32, 26, 29, 27, 29, 27, 54, 51, 51, 49, 44, 30, 32, 28, 34, 29, 20, 23, 20, 22, 22, 31, 33, 33, 30, 28, 16, 16, 12, 5, 12, 27, 26, 24, 27, 25, 8, 6, 6, 10, 12, 2, 7, 10, 6, 10, 37, 33, 36, 30, 38 |
  63, 72, 57, 62, 50, 0, 14, 3, 5, 7, 29, 31, 28, 31, 31, 37, 35, 31, 27, 36, 20, 23, 21, 21, 19, 22, 24, 21, 22, 24, 25, 27, 21, 25, 18, 23, 26, 22, 25, 25, 31, 32, 32, 34, 34, 12, 16, 19, 14, 16, 44, 37, 46, 39, 42, 26, 24, 26, 27, 24, 26, 24, 26, 25, 24, 15, 12, 17, 13, 14, 27, 24, 28, 23, 29, 30, 27, 30, 28, 28, 30, 30, 27, 36, 33, 34, 35, 38, 45, 39, 23, 24, 26, 23, 26, 44, 49, 44, 46, 41, 48, 51, 50, 45, 51, 34, 36, 35, 38, 31 |
  60, 66, 51, 55, 43, 8, 0, 10, 12, 12, 17, 22, 17, 19, 20, 26, 24, 21, 18, 25, 12, 15, 16, 14, 14, 13, 14, 11, 12, 15, 13, 15, 10, 14, 6, 11, 15, 11, 13, 16, 23, 24, 23, 26, 25, 3, 5, 10, 5, 8, 36, 28, 37, 29, 35, 16, 15, 16, 18, 13, 18, 16, 17, 16, 16, 11, 8, 10, 7, 3, 16, 14, 18, 12, 19, 26, 23, 25, 23, 22, 19, 19, 16, 24, 23, 27, 30, 31, 39, 34, 18, 21, 22, 17, 19, 39, 44, 39, 41, 37, 41, 44, 41, 38, 43, 22, 24, 24, 26, 20 |
  65, 74, 58, 63, 51, 4, 16, 0, 4, 9, 28, 30, 26, 30, 30, 37, 35, 31, 28, 36, 20, 23, 22, 22, 20, 22, 24, 21, 22, 24, 24, 26, 21, 25, 17, 22, 25, 21, 24, 24, 32, 33, 33, 35, 35, 12, 16, 20, 14, 16, 44, 38, 47, 40, 43, 27, 25, 26, 27, 24, 27, 25, 26, 25, 25, 13, 10, 16, 12, 14, 27, 24, 28, 24, 30, 31, 28, 31, 29, 29, 30, 30, 27, 36, 33, 35, 36, 39, 46, 40, 24, 26, 27, 24, 27, 45, 50, 46, 47, 43, 49, 52, 50, 46, 52, 33, 36, 35, 38, 30 |
  67, 77, 61, 66, 54, 5, 17, 4, 0, 9, 30, 30, 27, 32, 31, 40, 37, 34, 30, 38, 24, 26, 25, 24, 24, 25, 27, 24, 25, 27, 26, 27, 23, 28, 19, 24, 26, 22, 26, 24, 35, 36, 36, 38, 38, 14, 18, 23, 16, 19, 48, 41, 50, 42, 46, 29, 27, 29, 30, 26, 30, 27, 29, 28, 28, 13, 11, 16, 12, 16, 30, 27, 31, 26, 32, 35, 31, 35, 32, 32, 32, 32, 29, 38, 36, 38, 39, 42, 50, 43, 27, 29, 30, 27, 30, 48, 53, 49, 50, 46, 52, 55, 53, 49, 55, 35, 37, 37, 40, 33 |
  66, 73, 58, 63, 50, 9, 16, 10, 12, 0, 25, 26, 23, 27, 27, 35, 32, 29, 26, 34, 19, 22, 22, 21, 20, 21, 22, 19, 20, 23, 21, 23, 18, 23, 14, 19, 22, 17, 21, 20, 31, 32, 31, 34, 34, 10, 13, 19, 12, 15, 44, 37, 45, 38, 42, 25, 23, 24, 26, 22, 26, 24, 25, 24, 24, 10, 6, 12, 8, 10, 25, 23, 27, 21, 27, 32, 28, 31, 29, 29, 27, 28, 24, 33, 31, 34, 36, 38, 46, 40, 24, 26, 27, 24, 26, 45, 50, 45, 48, 43, 49, 52, 49, 46, 51, 30, 32, 32, 35, 28 |
  60, 60, 45, 50, 38, 29, 17, 28, 30, 25, 0, 14, 11, 5, 8, 14, 12, 11, 14, 14, 17, 16, 21, 18, 20, 14, 12, 13, 11, 14, 5, 4, 8, 7, 12, 7, 9, 11, 5, 14, 19, 21, 16, 22, 19, 18, 13, 15, 16, 17, 29, 22, 29, 19, 31, 12, 12, 14, 15, 11, 17, 15, 16, 13, 17, 22, 22, 17, 19, 15, 10, 10, 12, 10, 10, 28, 26, 25, 24, 21, 8, 6, 8, 11, 11, 26, 30, 29, 35, 33, 23, 27, 26, 21, 20, 37, 41, 36, 41, 37, 37, 37, 33, 33, 35, 5, 9, 8, 12, 3 |
  76, 76, 62, 66, 55, 31, 22, 30, 30, 26, 14, 0, 6, 9, 5, 29, 28, 27, 30, 30, 29, 30, 33, 31, 32, 27, 26, 25, 24, 28, 16, 13, 17, 22, 19, 15, 10, 12, 14, 7, 34, 36, 31, 38, 35, 24, 21, 26, 24, 27, 45, 38, 45, 35, 47, 27, 26, 28, 30, 25, 32, 29, 30, 28, 31, 18, 20, 15, 19, 19, 25, 24, 27, 23, 26, 42, 40, 40, 38, 36, 24, 22, 23, 26, 27, 41, 45, 44, 51, 49, 36, 40, 39, 34, 34, 53, 57, 52, 56, 52, 53, 53, 49, 49, 51, 19, 24, 22, 27, 18 |
  70, 71, 57, 61, 50, 28, 17, 26, 27, 23, 12, 5, 0, 9, 8, 25, 24, 22, 24, 26, 24, 25, 28, 26, 27, 22, 21, 20, 19, 23, 10, 9, 12, 17, 14, 10, 5, 7, 9, 4, 29, 31, 26, 33, 30, 20, 16, 22, 20, 22, 40, 33, 40, 30, 42, 22, 21, 24, 25, 20, 27, 24, 25, 23, 26, 16, 17, 12, 16, 15, 20, 19, 23, 18, 21, 37, 35, 35, 33, 30, 19, 17, 18, 22, 23, 36, 41, 40, 46, 43, 30, 35, 34, 29, 29, 48, 52, 47, 51, 47, 48, 49, 44, 44, 46, 16, 20, 18, 23, 14 |
  63, 62, 48, 52, 41, 31, 19, 30, 32, 27, 5, 10, 8, 0, 3, 16, 14, 14, 18, 17, 21, 20, 24, 22, 24, 18, 16, 16, 15, 17, 7, 5, 10, 11, 14, 9, 8, 11, 7, 13, 22, 24, 18, 25, 22, 21, 16, 18, 19, 20, 31, 25, 31, 21, 34, 15, 16, 17, 19, 14, 21, 18, 19, 16, 21, 23, 23, 18, 21, 17, 13, 13, 15, 13, 13, 31, 29, 29, 27, 24, 11, 9, 11, 12, 13, 29, 34, 32, 38, 36, 26, 30, 29, 24, 24, 40, 44, 39, 44, 40, 40, 39, 35, 36, 37, 6, 10, 8, 13, 4 |
  67, 67, 53, 57, 46, 31, 20, 30, 31, 27, 8, 7, 6, 3, 0, 20, 19, 18, 22, 22, 24, 24, 27, 25, 26, 21, 19, 19, 18, 21, 9, 6, 12, 14, 15, 10, 5, 10, 8, 10, 26, 28, 23, 30, 26, 22, 17, 21, 21, 23, 36, 30, 36, 26, 39, 19, 19, 21, 23, 18, 25, 22, 23, 21, 24, 21, 22, 16, 20, 17, 17, 17, 20, 16, 18, 35, 33, 33, 31, 28, 16, 14, 15, 17, 18, 33, 38, 37, 42, 41, 30, 34, 33, 27, 27, 44, 50, 44, 49, 44, 44, 44, 40, 41, 42, 10, 14, 12, 17, 9 |
  50, 47, 33, 38, 27, 37, 26, 37, 40, 35, 14, 29, 25, 16, 20, 0, 6, 13, 23, 9, 19, 17, 21, 19, 21, 16, 14, 17, 16, 14, 16, 17, 19, 12, 22, 19, 22, 24, 18, 27, 12, 14, 8, 13, 10, 26, 22, 18, 24, 22, 17, 12, 16, 6, 21, 11, 13, 13, 12, 14, 15, 14, 14, 13, 16, 34, 32, 30, 30, 25, 10, 13, 10, 14, 8, 23, 22, 20, 19, 16, 8, 9, 11, 3, 4, 18, 24, 20, 24, 25, 21, 25, 23, 19, 17, 27, 31, 26, 31, 28, 26, 24, 20, 22, 22, 10, 6, 9, 4, 12 |
  50, 49, 35, 38, 28, 35, 24, 35, 37, 32, 12, 28, 24, 14, 19, 6, 0, 8, 18, 5, 17, 15, 19, 17, 19, 14, 12, 15, 13, 12, 15, 16, 16, 10, 19, 16, 20, 22, 16, 25, 10, 13, 7, 13, 10, 24, 19, 16, 21, 20, 18, 12, 17, 8, 21, 9, 11, 11, 10, 12, 13, 12, 12, 11, 14, 31, 30, 27, 28, 23, 8, 11, 8, 12, 6, 22, 21, 19, 18, 15, 5, 6, 9, 3, 2, 17, 23, 20, 24, 24, 19, 24, 22, 17, 16, 27, 31, 26, 31, 28, 26, 26, 22, 23, 24, 10, 6, 8, 5, 10 |
  50, 50, 35, 40, 28, 31, 21, 31, 34, 29, 11, 27, 22, 14, 18, 12, 8, 0, 11, 6, 13, 11, 15, 14, 16, 10, 8, 11, 10, 9, 12, 14, 14, 7, 16, 14, 18, 19, 14, 23, 9, 11, 5, 12, 9, 20, 16, 12, 17, 16, 19, 12, 19, 10, 21, 5, 7, 7, 7, 8, 10, 9, 9, 8, 10, 29, 27, 25, 25, 20, 5, 7, 4, 9, 2, 19, 18, 16, 16, 12, 3, 5, 5, 6, 3, 16, 21, 19, 24, 24, 16, 20, 19, 14, 12, 27, 31, 26, 30, 27, 27, 27, 23, 23, 25, 10, 8, 10, 8, 10 |
  47, 49, 34, 39, 27, 27, 18, 28, 30, 26, 14, 30, 24, 18, 22, 22, 18, 11, 0, 16, 9, 6, 10, 9, 10, 6, 5, 8, 7, 4, 14, 16, 14, 8, 15, 16, 21, 20, 16, 25, 5, 8, 5, 9, 8, 17, 14, 9, 14, 12, 18, 11, 19, 12, 19, 3, 4, 2, 2, 6, 4, 4, 3, 3, 5, 28, 26, 24, 24, 18, 5, 6, 3, 8, 5, 14, 12, 12, 10, 7, 8, 10, 7, 12, 9, 12, 17, 16, 23, 19, 10, 15, 13, 9, 7, 24, 29, 23, 27, 23, 25, 26, 24, 21, 25, 15, 14, 15, 14, 14 |
  48, 46, 31, 36, 25, 36, 25, 36, 38, 34, 14, 30, 26, 17, 22, 8, 4, 7, 16, 0, 17, 15, 18, 17, 19, 15, 12, 16, 14, 12, 17, 18, 18, 12, 21, 19, 22, 24, 19, 27, 9, 11, 5, 11, 7, 25, 21, 16, 22, 21, 15, 9, 15, 5, 18, 10, 12, 11, 10, 12, 12, 12, 12, 12, 13, 34, 32, 30, 30, 25, 10, 12, 8, 13, 7, 20, 19, 17, 16, 14, 8, 9, 10, 5, 4, 16, 21, 17, 22, 22, 19, 23, 20, 17, 15, 25, 29, 24, 29, 26, 24, 23, 19, 20, 21, 12, 9, 10, 7, 13 |
  49, 55, 39, 44, 31, 20, 12, 20, 24, 19, 17, 29, 24, 21, 24, 19, 17, 13, 9, 17, 0, 5, 6, 3, 5, 3, 6, 5, 6, 5, 15, 17, 12, 10, 12, 15, 20, 18, 16, 24, 12, 13, 13, 15, 15, 10, 10, 3, 8, 5, 25, 18, 27, 20, 24, 9, 7, 7, 8, 7, 7, 5, 6, 6, 5, 23, 20, 21, 18, 14, 10, 8, 10, 8, 12, 14, 11, 13, 11, 10, 13, 15, 11, 19, 16, 16, 18, 20, 27, 22, 7, 11, 11, 5, 7, 27, 32, 27, 30, 25, 30, 33, 30, 27, 32, 20, 20, 21, 21, 18 |
  47, 52, 37, 41, 29, 23, 15, 23, 26, 22, 16, 30, 25, 20, 24, 17, 15, 11, 6, 15, 5, 0, 7, 4, 7, 3, 5, 5, 6, 3, 15, 17, 13, 10, 13, 16, 21, 19, 17, 24, 10, 10, 10, 12, 12, 13, 12, 5, 10, 8, 22, 15, 24, 17, 21, 6, 5, 5, 5, 6, 4, 3, 4, 4, 2, 25, 22, 23, 21, 16, 9, 7, 8, 8, 10, 13, 10, 11, 9, 7, 12, 14, 10, 16, 14, 13, 16, 17, 25, 20, 6, 11, 10, 5, 5, 25, 30, 25, 28, 24, 27, 30, 27, 24, 29, 19, 18, 19, 19, 17 |
  45, 52, 36, 41, 29, 21, 16, 22, 25, 22, 21, 33, 28, 24, 27, 21, 19, 15, 10, 18, 7, 6, 0, 5, 4, 7, 10, 9, 10, 8, 19, 21, 16, 14, 16, 19, 24, 22, 20, 27, 12, 11, 14, 13, 15, 14, 14, 7, 11, 8, 23, 17, 25, 21, 21, 10, 10, 9, 9, 10, 6, 7, 7, 9, 5, 26, 24, 24, 22, 17, 12, 11, 12, 12, 14, 11, 8, 10, 8, 8, 16, 18, 14, 21, 17, 13, 15, 17, 24, 19, 3, 7, 7, 2, 5, 24, 29, 24, 26, 22, 27, 30, 29, 24, 30, 23, 22, 23, 23, 22 |
  47, 53, 38, 42, 30, 21, 14, 22, 24, 21, 18, 31, 26, 22, 25, 19, 17, 14, 9, 17, 2, 4, 4, 0, 4, 5, 7, 6, 8, 6, 16, 19, 14, 12, 14, 16, 22, 20, 18, 25, 11, 12, 13, 14, 14, 12, 12, 5, 10, 6, 24, 17, 26, 20, 22, 9, 8, 7, 8, 8, 6, 5, 6, 7, 5, 25, 22, 23, 20, 16, 11, 9, 10, 10, 12, 12, 10, 11, 9, 8, 14, 16, 12, 19, 16, 14, 16, 18, 26, 20, 5, 10, 9, 4, 5, 25, 30, 25, 28, 24, 28, 31, 29, 25, 30, 21, 21, 22, 22, 19 |
  47, 54, 38, 43, 31, 19, 14, 20, 24, 20, 20, 32, 27, 24, 26, 21, 19, 16, 10, 19, 4, 8, 4, 4, 0, 6, 9, 8, 9, 8, 18, 20, 15, 13, 14, 17, 23, 21, 19, 26, 13, 13, 15, 15, 16, 12, 12, 6, 10, 6, 25, 19, 27, 22, 23, 11, 10, 9, 10, 10, 8, 7, 8, 9, 6, 24, 22, 23, 20, 16, 12, 11, 12, 11, 14, 12, 10, 12, 10, 10, 16, 17, 14, 21, 18, 15, 17, 19, 27, 21, 5, 9, 9, 4, 7, 26, 31, 26, 28, 24, 29, 32, 30, 26, 32, 23, 22, 23, 24, 21 |
  50, 54, 39, 44, 31, 22, 13, 22, 25, 21, 14, 27, 22, 18, 21, 16, 14, 10, 6, 15, 3, 3, 7, 5, 6, 0, 6, 4, 6, 8, 12, 15, 10, 8, 10, 13, 18, 16, 14, 22, 11, 12, 11, 14, 13, 12, 10, 3, 9, 7, 24, 16, 25, 18, 23, 5, 4, 5, 6, 4, 6, 3, 5, 4, 5, 23, 20, 20, 18, 13, 7, 5, 7, 5, 9, 16, 13, 14, 12, 10, 10, 12, 8, 16, 13, 16, 19, 20, 27, 23, 9, 13, 12, 7, 8, 27, 32, 27, 30, 26, 29, 31, 29, 26, 30, 16, 16, 17, 18, 16 |
  51, 54, 38, 43, 31, 24, 14, 24, 27, 22, 12, 26, 21, 16, 19, 14, 12, 8, 5, 12, 6, 5, 10, 7, 9, 5, 0, 6, 6, 10, 11, 13, 10, 5, 10, 11, 17, 16, 12, 21, 10, 12, 10, 14, 12, 13, 10, 5, 10, 9, 23, 16, 24, 16, 23, 3, 2, 3, 5, 2, 7, 3, 5, 2, 6, 24, 21, 20, 19, 14, 4, 2, 5, 3, 6, 17, 14, 15, 13, 10, 8, 10, 5, 13, 10, 16, 20, 20, 27, 24, 11, 16, 14, 9, 9, 28, 33, 27, 31, 27, 29, 31, 28, 26, 30, 14, 14, 15, 16, 13 |
  52, 56, 41, 45, 33, 21, 11, 21, 24, 19, 13, 25, 20, 16, 19, 17, 15, 11, 8, 16, 5, 5, 9, 6, 8, 3, 6, 0, 4, 9, 11, 13, 9, 7, 9, 11, 16, 15, 12, 20, 13, 14, 12, 16, 15, 10, 7, 2, 7, 6, 25, 18, 27, 19, 25, 6, 5, 6, 8, 4, 9, 5, 7, 5, 7, 21, 18, 18, 16, 11, 7, 5, 8, 4, 10, 17, 15, 16, 14, 12, 10, 12, 8, 16, 13, 17, 21, 22, 29, 25, 11, 15, 14, 9, 10, 30, 35, 29, 33, 28, 31, 34, 30, 28, 33, 16, 16, 17, 18, 14 |
  52, 55, 41, 45, 33, 22, 12, 22, 25, 20, 11, 24, 19, 15, 18, 16, 13, 10, 7, 14, 6, 6, 10, 8, 9, 7, 5, 5, 0, 10, 10, 12, 8, 5, 9, 10, 16, 14, 11, 19, 12, 14, 11, 16, 14, 11, 8, 4, 9, 8, 25, 17, 26, 18, 25, 5, 3, 5, 7, 2, 9, 5, 7, 4, 7, 22, 19, 18, 17, 12, 5, 3, 7, 2, 8, 18, 16, 16, 14, 12, 9, 10, 6, 14, 12, 18, 22, 22, 29, 25, 12, 16, 16, 10, 10, 30, 35, 29, 33, 29, 31, 33, 30, 28, 32, 14, 15, 15, 16, 12 |
  49, 52, 37, 42, 30, 24, 15, 24, 27, 23, 14, 28, 23, 17, 21, 14, 12, 9, 4, 12, 5, 3, 8, 6, 8, 5, 6, 5, 4, 0, 13, 15, 11, 7, 12, 13, 19, 17, 14, 23, 9, 10, 9, 12, 11, 14, 11, 5, 11, 9, 22, 14, 23, 16, 22, 4, 2, 2, 4, 3, 5, 2, 3, 2, 4, 24, 22, 22, 20, 15, 5, 4, 5, 5, 7, 15, 13, 13, 11, 9, 9, 10, 7, 14, 11, 14, 18, 18, 26, 22, 10, 14, 13, 7, 7, 26, 31, 26, 30, 25, 28, 30, 27, 24, 29, 16, 15, 16, 16, 14 |
  61, 62, 47, 52, 40, 25, 13, 24, 26, 21, 5, 16, 10, 7, 9, 16, 15, 12, 14, 17, 15, 15, 19, 16, 18, 12, 11, 11, 10, 13, 0, 5, 4, 9, 8, 3, 6, 7, 2, 11, 19, 22, 17, 23, 20, 14, 10, 12, 13, 14, 30, 24, 31, 22, 32, 12, 11, 13, 15, 10, 17, 14, 15, 12, 16, 18, 17, 14, 15, 11, 10, 9, 12, 8, 12, 27, 25, 25, 23, 21, 10, 9, 8, 14, 14, 26, 30, 30, 36, 34, 21, 26, 24, 19, 19, 38, 42, 37, 41, 37, 38, 39, 35, 35, 37, 10, 12, 12, 16, 7 |
  63, 63, 49, 53, 42, 27, 15, 26, 27, 23, 4, 13, 9, 5, 6, 17, 16, 14, 16, 18, 17, 17, 21, 19, 20, 15, 13, 13, 12, 15, 9, 0, 10, 15, 14, 4, 5, 7, 2, 10, 21, 24, 18, 24, 22, 16, 12, 15, 16, 16, 32, 25, 32, 23, 34, 14, 14, 16, 17, 12, 19, 16, 17, 15, 19, 18, 18, 14, 16, 13, 12, 11, 14, 10, 13, 30, 27, 27, 25, 23, 11, 10, 10, 15, 14, 28, 33, 31, 38, 36, 24, 28, 27, 22, 22, 40, 44, 39, 43, 39, 40, 40, 36, 36, 38, 9, 12, 11, 16, 7 |
  60, 62, 47, 52, 40, 21, 10, 21, 23, 18, 8, 17, 12, 10, 12, 19, 16, 14, 14, 18, 12, 13, 16, 14, 15, 10, 10, 9, 8, 11, 6, 11, 0, 10, 10, 3, 9, 7, 5, 12, 19, 21, 17, 23, 21, 11, 6, 10, 10, 11, 31, 24, 32, 23, 32, 11, 10, 12, 14, 9, 16, 12, 14, 12, 15, 16, 14, 12, 12, 8, 10, 9, 12, 7, 12, 26, 23, 24, 22, 19, 11, 11, 9, 16, 15, 25, 29, 29, 36, 32, 19, 23, 23, 17, 17, 37, 42, 36, 40, 36, 38, 39, 36, 35, 38, 13, 15, 15, 18, 10 |
  54, 56, 41, 46, 34, 25, 14, 25, 28, 23, 7, 22, 17, 11, 14, 12, 10, 7, 8, 12, 10, 10, 14, 12, 13, 8, 5, 7, 5, 7, 10, 15, 10, 0, 11, 8, 13, 13, 9, 17, 13, 15, 11, 16, 14, 14, 10, 9, 12, 12, 25, 17, 25, 16, 26, 5, 5, 7, 9, 4, 11, 8, 10, 7, 10, 22, 21, 18, 18, 13, 4, 3, 6, 3, 6, 21, 19, 19, 17, 15, 5, 5, 2, 11, 9, 20, 24, 24, 30, 27, 16, 20, 19, 14, 13, 31, 36, 30, 35, 31, 32, 33, 30, 28, 31, 10, 10, 11, 13, 8 |
  60, 64, 49, 53, 41, 18, 6, 17, 19, 14, 12, 19, 14, 14, 15, 22, 19, 16, 15, 21, 12, 13, 16, 14, 14, 10, 10, 9, 9, 12, 10, 14, 8, 15, 0, 5, 10, 7, 8, 12, 20, 22, 19, 24, 22, 8, 3, 9, 7, 9, 33, 25, 34, 25, 33, 13, 11, 13, 15, 10, 16, 13, 15, 12, 15, 13, 12, 10, 10, 5, 12, 10, 14, 8, 14, 25, 23, 24, 22, 20, 14, 14, 11, 19, 18, 26, 29, 30, 37, 33, 18, 22, 22, 16, 18, 38, 42, 37, 41, 36, 39, 41, 38, 36, 40, 16, 19, 18, 21, 14 |
  62, 64, 49, 53, 41, 23, 11, 22, 24, 19, 7, 15, 10, 9, 10, 19, 16, 14, 16, 19, 15, 16, 19, 16, 17, 13, 11, 11, 10, 13, 3, 4, 3, 8, 5, 0, 8, 10, 5, 14, 21, 23, 18, 24, 22, 12, 8, 12, 12, 13, 32, 25, 33, 24, 34, 13, 12, 14, 16, 10, 18, 14, 16, 13, 16, 16, 15, 11, 13, 9, 11, 10, 14, 9, 13, 27, 25, 26, 24, 22, 12, 11, 10, 16, 16, 27, 31, 30, 38, 34, 21, 25, 25, 19, 20, 38, 44, 38, 42, 38, 40, 41, 37, 36, 39, 12, 15, 14, 18, 10 |
  67, 67, 53, 57, 46, 26, 15, 25, 26, 22, 9, 10, 5, 8, 5, 22, 20, 18, 21, 22, 20, 21, 24, 22, 23, 18, 17, 16, 16, 19, 6, 5, 9, 13, 10, 8, 0, 6, 6, 7, 25, 27, 23, 29, 26, 17, 13, 17, 16, 19, 37, 30, 37, 27, 38, 17, 17, 19, 21, 16, 23, 20, 21, 19, 22, 16, 16, 11, 14, 12, 16, 15, 19, 14, 17, 33, 30, 31, 29, 27, 16, 14, 14, 19, 19, 32, 37, 36, 42, 39, 27, 31, 30, 25, 25, 44, 49, 43, 47, 43, 44, 44, 41, 41, 42, 13, 16, 15, 20, 10 |
  66, 68, 53, 58, 46, 22, 11, 21, 22, 17, 11, 12, 7, 11, 10, 24, 22, 19, 20, 24, 18, 19, 22, 20, 21, 16, 16, 15, 14, 17, 7, 7, 7, 13, 7, 8, 9, 0, 9, 7, 25, 27, 23, 28, 27, 13, 10, 16, 13, 16, 37, 30, 38, 28, 38, 17, 16, 19, 20, 15, 22, 19, 20, 18, 21, 12, 12, 7, 10, 8, 16, 14, 19, 13, 18, 31, 29, 30, 28, 26, 16, 16, 14, 21, 20, 31, 36, 36, 42, 39, 24, 29, 28, 23, 24, 43, 48, 42, 47, 42, 44, 45, 41, 41, 44, 16, 19, 18, 22, 13 |
  63, 64, 49, 53, 42, 25, 13, 24, 26, 21, 5, 14, 9, 7, 8, 18, 16, 14, 16, 19, 16, 17, 20, 18, 19, 14, 12, 12, 11, 14, 2, 2, 5, 9, 8, 7, 6, 10, 0, 13, 21, 24, 19, 24, 22, 15, 10, 14, 14, 15, 32, 25, 33, 23, 34, 13, 13, 15, 17, 12, 19, 16, 17, 14, 18, 17, 16, 12, 14, 11, 12, 11, 14, 10, 13, 29, 26, 27, 25, 23, 12, 10, 10, 16, 15, 28, 32, 31, 38, 36, 23, 27, 26, 21, 21, 39, 44, 39, 43, 39, 40, 41, 37, 37, 39, 10, 14, 12, 17, 8 |
  70, 72, 58, 63, 51, 25, 16, 24, 24, 20, 14, 7, 4, 13, 10, 27, 25, 23, 25, 27, 24, 24, 27, 25, 26, 22, 21, 20, 19, 23, 11, 10, 12, 17, 12, 12, 8, 8, 13, 0, 30, 32, 27, 33, 31, 18, 14, 21, 18, 21, 41, 34, 42, 32, 43, 22, 22, 24, 25, 20, 27, 24, 25, 23, 26, 12, 14, 9, 12, 12, 20, 19, 23, 18, 22, 37, 34, 35, 33, 30, 21, 19, 19, 24, 24, 36, 40, 40, 47, 44, 30, 34, 34, 28, 29, 48, 53, 48, 51, 47, 49, 50, 46, 45, 48, 18, 22, 20, 25, 16 |
  42, 44, 29, 34, 22, 31, 23, 32, 35, 31, 19, 34, 29, 22, 26, 12, 10, 9, 5, 9, 12, 10, 12, 11, 13, 11, 10, 13, 12, 9, 19, 21, 19, 13, 20, 21, 25, 25, 21, 30, 0, 4, 5, 3, 5, 22, 19, 13, 19, 16, 13, 6, 15, 10, 13, 9, 10, 7, 5, 11, 6, 8, 6, 9, 7, 33, 30, 30, 28, 24, 10, 11, 7, 13, 9, 11, 11, 9, 9, 5, 11, 13, 12, 13, 10, 8, 13, 11, 17, 15, 11, 14, 12, 10, 7, 19, 24, 18, 23, 19, 20, 22, 19, 16, 20, 18, 16, 17, 15, 18 |
  40, 42, 27, 32, 20, 32, 24, 33, 36, 32, 21, 36, 31, 24, 28, 14, 13, 11, 8, 11, 13, 10, 11, 12, 13, 12, 12, 14, 14, 10, 22, 24, 21, 15, 22, 23, 27, 27, 24, 32, 3, 0, 8, 3, 8, 23, 21, 14, 20, 17, 12, 6, 14, 11, 12, 10, 11, 9, 7, 13, 6, 10, 8, 10, 8, 35, 32, 31, 30, 25, 12, 13, 10, 14, 11, 10, 10, 6, 7, 4, 13, 16, 14, 16, 12, 5, 10, 9, 16, 13, 10, 13, 10, 10, 7, 17, 22, 16, 20, 16, 18, 20, 18, 15, 20, 21, 18, 20, 17, 21 |
  45, 46, 31, 36, 24, 32, 23, 33, 36, 31, 16, 31, 26, 18, 23, 8, 7, 5, 5, 5, 13, 10, 14, 13, 15, 11, 10, 12, 11, 9, 17, 18, 17, 11, 19, 18, 23, 23, 19, 27, 5, 9, 0, 8, 5, 22, 19, 13, 19, 17, 14, 7, 16, 8, 16, 7, 9, 7, 6, 10, 8, 9, 7, 8, 9, 32, 30, 28, 28, 23, 8, 10, 5, 11, 6, 15, 15, 12, 12, 9, 8, 10, 10, 9, 6, 12, 17, 14, 20, 19, 14, 18, 16, 12, 10, 22, 27, 21, 26, 23, 22, 23, 19, 18, 21, 14, 12, 14, 11, 15 |
  38, 41, 25, 30, 18, 34, 26, 35, 38, 34, 22, 38, 33, 25, 30, 13, 13, 12, 9, 11, 15, 12, 13, 14, 15, 14, 14, 16, 16, 12, 23, 24, 23, 16, 24, 24, 29, 28, 24, 33, 3, 5, 7, 0, 7, 25, 23, 16, 22, 19, 10, 4, 12, 10, 10, 12, 13, 10, 9, 14, 9, 11, 10, 12, 10, 36, 34, 33, 32, 27, 13, 15, 10, 16, 12, 10, 11, 8, 8, 6, 14, 16, 15, 16, 13, 5, 11, 8, 14, 12, 12, 15, 12, 12, 9, 16, 20, 15, 19, 16, 16, 18, 16, 13, 17, 21, 18, 20, 17, 21 |
  42, 42, 27, 32, 20, 34, 25, 35, 38, 34, 19, 35, 30, 22, 26, 10, 10, 9, 8, 7, 15, 12, 15, 14, 16, 13, 12, 15, 14, 11, 20, 22, 21, 14, 22, 22, 26, 27, 22, 31, 5, 9, 4, 8, 0, 24, 22, 16, 22, 19, 11, 4, 12, 7, 13, 10, 11, 10, 8, 13, 9, 11, 9, 10, 10, 35, 33, 31, 30, 26, 11, 13, 9, 14, 10, 14, 14, 11, 11, 9, 11, 13, 13, 12, 10, 9, 14, 11, 16, 16, 14, 17, 15, 13, 10, 19, 24, 17, 23, 19, 19, 19, 16, 15, 18, 17, 15, 16, 13, 18 |
  58, 64, 49, 54, 41, 12, 3, 12, 14, 10, 18, 24, 20, 21, 22, 26, 24, 20, 17, 25, 10, 13, 14, 12, 12, 12, 13, 10, 11, 14, 14, 16, 11, 14, 8, 12, 17, 13, 15, 18, 22, 23, 22, 25, 24, 0, 6, 10, 3, 6, 35, 27, 36, 29, 34, 16, 14, 16, 17, 13, 17, 14, 16, 14, 15, 14, 10, 12, 9, 5, 16, 13, 17, 12, 19, 24, 21, 23, 21, 20, 19, 19, 16, 24, 22, 26, 28, 30, 37, 32, 16, 19, 19, 15, 17, 37, 42, 37, 40, 35, 40, 42, 40, 37, 42, 23, 24, 24, 27, 21 |
  58, 63, 48, 52, 40, 16, 5, 16, 18, 13, 13, 21, 16, 16, 17, 22, 19, 16, 14, 21, 10, 12, 14, 12, 12, 10, 10, 7, 8, 11, 10, 12, 6, 10, 3, 8, 13, 10, 10, 14, 19, 21, 19, 23, 22, 5, 0, 6, 4, 7, 32, 25, 33, 25, 32, 12, 11, 13, 14, 10, 15, 12, 14, 12, 14, 14, 12, 11, 10, 5, 12, 10, 14, 8, 15, 24, 21, 22, 20, 19, 14, 15, 12, 20, 18, 24, 28, 29, 36, 31, 16, 20, 20, 15, 16, 36, 41, 36, 39, 35, 38, 40, 38, 35, 39, 17, 20, 19, 22, 16 |
  51, 56, 41, 46, 33, 19, 10, 20, 23, 19, 15, 26, 22, 18, 21, 18, 16, 12, 9, 16, 3, 5, 7, 5, 6, 3, 5, 2, 4, 5, 12, 15, 10, 9, 9, 12, 17, 16, 14, 21, 13, 14, 13, 16, 16, 11, 8, 0, 10, 8, 26, 19, 27, 20, 25, 8, 5, 7, 8, 5, 8, 5, 7, 6, 7, 21, 18, 18, 16, 12, 9, 6, 9, 6, 11, 16, 14, 15, 13, 12, 12, 13, 10, 17, 15, 17, 21, 22, 29, 24, 10, 14, 13, 8, 10, 29, 34, 29, 32, 28, 31, 34, 31, 28, 33, 17, 18, 19, 20, 16 |
  56, 62, 47, 52, 39, 14, 5, 14, 16, 12, 16, 24, 20, 19, 21, 24, 21, 17, 14, 22, 8, 10, 11, 10, 10, 9, 10, 7, 9, 11, 13, 16, 10, 12, 7, 12, 16, 13, 14, 18, 19, 20, 19, 22, 22, 3, 5, 6, 0, 5, 32, 25, 33, 26, 31, 13, 11, 12, 14, 10, 14, 12, 13, 12, 12, 16, 12, 14, 11, 7, 13, 11, 15, 10, 16, 22, 18, 21, 18, 17, 16, 17, 14, 22, 20, 23, 26, 27, 35, 30, 14, 17, 17, 13, 15, 35, 40, 35, 37, 33, 37, 40, 37, 34, 39, 21, 22, 22, 24, 19 |
  53, 59, 44, 49, 36, 16, 8, 16, 19, 15, 17, 27, 22, 20, 23, 22, 20, 16, 12, 21, 5, 8, 8, 6, 6, 7, 9, 6, 8, 9, 14, 16, 11, 12, 9, 13, 19, 16, 15, 21, 16, 17, 17, 19, 19, 6, 10, 7, 6, 0, 29, 22, 31, 24, 28, 12, 10, 10, 12, 9, 11, 9, 11, 10, 10, 19, 16, 17, 14, 10, 12, 10, 13, 10, 15, 18, 15, 17, 15, 14, 16, 16, 13, 21, 19, 20, 23, 24, 32, 26, 10, 14, 14, 10, 12, 31, 37, 31, 34, 30, 34, 37, 35, 31, 36, 21, 22, 22, 24, 19 |
  34, 31, 17, 22, 11, 44, 36, 44, 48, 44, 29, 45, 40, 31, 36, 17, 18, 19, 18, 15, 25, 22, 23, 24, 25, 24, 23, 25, 25, 22, 30, 32, 31, 25, 33, 32, 37, 37, 32, 41, 13, 12, 14, 10, 11, 35, 32, 26, 32, 29, 0, 8, 3, 10, 8, 21, 22, 20, 18, 24, 18, 21, 19, 21, 20, 46, 43, 42, 41, 36, 22, 24, 19, 25, 20, 17, 19, 16, 17, 16, 22, 23, 23, 20, 18, 12, 15, 10, 9, 13, 22, 23, 21, 21, 19, 13, 16, 11, 16, 16, 10, 9, 6, 6, 8, 26, 23, 25, 20, 27 |
  39, 39, 24, 28, 17, 37, 28, 38, 41, 37, 22, 38, 33, 25, 30, 12, 12, 12, 11, 9, 18, 15, 17, 17, 19, 16, 16, 18, 17, 14, 24, 25, 24, 17, 25, 25, 30, 30, 25, 34, 6, 6, 7, 4, 4, 27, 25, 19, 25, 22, 10, 0, 11, 9, 13, 13, 15, 13, 11, 16, 12, 14, 12, 14, 13, 38, 36, 35, 34, 29, 14, 16, 12, 18, 12, 14, 15, 11, 12, 10, 14, 16, 16, 14, 12, 9, 13, 9, 14, 14, 16, 18, 16, 15, 12, 16, 20, 15, 20, 17, 16, 16, 13, 12, 15, 20, 17, 19, 15, 21 |
  36, 31, 17, 22, 12, 46, 37, 47, 50, 45, 29, 45, 40, 31, 36, 16, 17, 19, 19, 15, 27, 24, 25, 26, 27, 25, 24, 27, 26, 23, 31, 32, 32, 25, 34, 33, 37, 38, 33, 42, 15, 14, 16, 12, 12, 36, 33, 27, 33, 31, 6, 11, 0, 8, 11, 22, 23, 22, 20, 24, 20, 23, 21, 22, 22, 47, 44, 43, 42, 38, 23, 24, 20, 26, 20, 20, 22, 18, 19, 18, 22, 24, 24, 19, 18, 15, 18, 12, 11, 16, 24, 26, 24, 24, 21, 16, 17, 13, 19, 18, 12, 9, 5, 8, 6, 26, 22, 24, 20, 27 |
  44, 41, 28, 31, 22, 39, 29, 40, 42, 38, 19, 35, 30, 21, 26, 6, 8, 10, 12, 5, 20, 17, 21, 20, 22, 18, 16, 19, 18, 16, 22, 23, 23, 16, 25, 24, 27, 28, 23, 32, 10, 11, 8, 10, 7, 29, 25, 20, 26, 24, 12, 10, 8, 0, 16, 13, 15, 14, 13, 16, 15, 16, 14, 15, 16, 38, 36, 34, 34, 29, 14, 16, 12, 17, 11, 19, 20, 17, 17, 14, 12, 13, 15, 10, 9, 15, 20, 15, 19, 20, 20, 24, 21, 19, 16, 22, 26, 21, 26, 24, 20, 19, 14, 16, 16, 16, 12, 14, 10, 17 |
  30, 31, 16, 21, 9, 42, 35, 43, 46, 42, 31, 47, 42, 34, 39, 21, 21, 21, 19, 18, 24, 21, 21, 22, 23, 23, 23, 25, 25, 22, 32, 34, 32, 26, 33, 34, 38, 38, 34, 43, 13, 12, 16, 10, 13, 34, 32, 25, 31, 28, 9, 12, 11, 17, 0, 22, 22, 20, 18, 24, 17, 21, 19, 21, 19, 45, 43, 42, 41, 36, 23, 24, 20, 26, 22, 13, 16, 12, 14, 14, 24, 26, 24, 24, 22, 9, 10, 5, 5, 7, 19, 19, 17, 19, 17, 7, 11, 5, 11, 9, 7, 11, 11, 4, 12, 30, 26, 28, 24, 30 |
  50, 52, 37, 41, 29, 26, 16, 27, 29, 25, 12, 27, 22, 15, 19, 11, 9, 5, 3, 10, 9, 6, 10, 9, 11, 5, 3, 6, 5, 4, 12, 14, 11, 5, 13, 13, 17, 17, 13, 22, 9, 10, 7, 12, 10, 16, 12, 8, 13, 12, 21, 13, 22, 13, 22, 0, 3, 5, 7, 4, 6, 4, 5, 3, 6, 26, 24, 22, 22, 16, 2, 3, 2, 5, 4, 16, 15, 14, 12, 10, 5, 8, 5, 11, 8, 15, 19, 19, 25, 23, 12, 16, 15, 10, 9, 27, 31, 26, 30, 26, 27, 29, 26, 24, 27, 13, 12, 13, 13, 12 |
  50, 53, 38, 42, 30, 24, 15, 25, 27, 23, 12, 26, 21, 16, 19, 13, 11, 7, 4, 12, 7, 5, 10, 8, 10, 4, 2, 5, 3, 2, 11, 14, 10, 5, 11, 12, 17, 16, 13, 22, 10, 11, 9, 13, 11, 14, 11, 5, 11, 10, 22, 15, 23, 15, 22, 2, 0, 5, 7, 2, 6, 3, 5, 2, 5, 24, 22, 21, 20, 15, 4, 3, 4, 4, 6, 16, 14, 14, 12, 10, 7, 9, 5, 12, 10, 16, 20, 19, 26, 23, 11, 16, 14, 9, 9, 27, 32, 27, 30, 26, 28, 30, 27, 25, 29, 14, 14, 14, 15, 13 |
  48, 51, 36, 40, 28, 26, 16, 26, 29, 24, 14, 28, 24, 17, 21, 13, 11, 7, 2, 11, 7, 5, 9, 7, 9, 5, 3, 6, 5, 2, 13, 16, 12, 7, 13, 14, 19, 19, 15, 24, 7, 9, 7, 10, 10, 16, 13, 7, 12, 10, 20, 13, 22, 14, 20, 5, 4, 0, 3, 5, 4, 2, 2, 2, 4, 26, 24, 23, 22, 16, 5, 5, 4, 6, 6, 14, 12, 12, 10, 8, 8, 10, 7, 13, 10, 13, 17, 17, 24, 21, 10, 14, 12, 8, 7, 25, 30, 24, 28, 24, 26, 28, 25, 23, 27, 15, 14, 16, 15, 14 |
  46, 49, 34, 38, 27, 27, 18, 27, 30, 26, 15, 30, 25, 19, 23, 12, 10, 7, 2, 10, 8, 5, 9, 8, 10, 6, 5, 8, 7, 4, 15, 17, 14, 9, 15, 16, 21, 20, 17, 25, 5, 7, 6, 9, 8, 17, 14, 8, 14, 12, 18, 11, 20, 13, 18, 8, 6, 2, 0, 7, 3, 3, 2, 3, 4, 28, 25, 24, 24, 18, 6, 6, 4, 8, 6, 13, 12, 11, 10, 6, 9, 11, 8, 13, 10, 12, 16, 16, 22, 19, 10, 14, 12, 8, 6, 24, 28, 23, 27, 23, 24, 26, 24, 21, 25, 16, 14, 16, 15, 15 |
  52, 54, 39, 44, 32, 24, 13, 24, 26, 22, 11, 25, 20, 14, 18, 14, 12, 8, 6, 12, 7, 6, 10, 8, 10, 4, 2, 4, 2, 3, 10, 12, 9, 4, 10, 10, 16, 15, 12, 20, 11, 13, 10, 14, 13, 13, 10, 5, 10, 9, 24, 16, 24, 16, 24, 4, 1, 5, 6, 0, 8, 5, 6, 3, 7, 23, 21, 19, 18, 13, 4, 2, 5, 2, 6, 18, 16, 16, 14, 12, 7, 9, 5, 13, 10, 17, 21, 21, 28, 24, 12, 16, 16, 10, 10, 29, 34, 28, 32, 28, 30, 31, 28, 27, 30, 13, 13, 14, 15, 12 |
  44, 49, 33, 38, 26, 26, 18, 27, 30, 26, 17, 32, 27, 21, 25, 15, 13, 10, 4, 12, 7, 4, 6, 6, 8, 6, 7, 9, 9, 5, 17, 19, 16, 11, 16, 18, 23, 22, 19, 27, 6, 6, 8, 9, 9, 17, 15, 8, 14, 11, 18, 12, 20, 15, 17, 6, 6, 4, 3, 8, 0, 5, 2, 8, 3, 29, 26, 26, 24, 19, 9, 9, 7, 10, 10, 10, 9, 9, 7, 4, 11, 14, 10, 16, 12, 10, 14, 14, 21, 17, 7, 11, 9, 5, 3, 22, 27, 22, 25, 21, 24, 26, 24, 21, 26, 19, 17, 19, 17, 18 |
  48, 51, 36, 41, 29, 24, 16, 25, 27, 24, 15, 29, 24, 18, 22, 14, 12, 9, 4, 12, 5, 3, 7, 5, 7, 3, 3, 5, 5, 2, 14, 16, 12, 8, 13, 14, 20, 19, 16, 24, 8, 10, 9, 11, 11, 14, 12, 5, 12, 9, 21, 14, 23, 16, 21, 4, 3, 2, 3, 5, 4, 0, 4, 4, 3, 26, 23, 23, 21, 16, 6, 5, 5, 6, 8, 14, 12, 12, 10, 8, 10, 11, 8, 14, 11, 13, 17, 17, 24, 21, 9, 13, 12, 6, 6, 25, 30, 24, 28, 24, 27, 29, 26, 24, 28, 16, 16, 17, 16, 16 |
  46, 50, 34, 39, 27, 26, 17, 26, 29, 25, 16, 30, 25, 19, 23, 14, 12, 9, 3, 12, 6, 4, 7, 6, 8, 5, 5, 7, 7, 3, 15, 17, 14, 10, 15, 16, 21, 20, 17, 25, 6, 8, 7, 10, 9, 16, 14, 7, 13, 11, 19, 12, 21, 14, 19, 5, 5, 2, 2, 6, 3, 6, 0, 7, 4, 27, 25, 24, 23, 18, 7, 7, 5, 8, 8, 12, 10, 10, 9, 6, 10, 12, 9, 14, 11, 12, 16, 16, 23, 19, 8, 12, 11, 6, 5, 24, 28, 23, 27, 23, 25, 27, 24, 22, 26, 17, 16, 17, 16, 16 |
  49, 52, 37, 41, 29, 25, 16, 25, 28, 24, 13, 28, 23, 16, 21, 13, 11, 8, 3, 12, 6, 4, 9, 7, 9, 4, 2, 5, 4, 2, 12, 15, 12, 7, 12, 13, 19, 18, 14, 23, 9, 10, 8, 12, 10, 14, 12, 6, 12, 10, 21, 14, 22, 15, 21, 3, 2, 2, 3, 3, 7, 5, 7, 0, 7, 25, 23, 22, 21, 16, 5, 4, 4, 5, 6, 15, 13, 13, 11, 9, 8, 10, 6, 13, 10, 14, 18, 18, 25, 22, 10, 14, 13, 8, 7, 26, 31, 25, 29, 25, 27, 29, 26, 24, 28, 15, 14, 15, 15, 14 |
  45, 50, 35, 39, 27, 24, 16, 25, 28, 24, 17, 31, 26, 21, 24, 16, 14, 10, 5, 13, 5, 2, 5, 5, 6, 5, 6, 7, 7, 4, 16, 19, 15, 10, 15, 16, 22, 21, 18, 26, 7, 8, 9, 10, 10, 15, 14, 7, 12, 10, 20, 13, 22, 16, 19, 6, 5, 4, 4, 7, 3, 5, 3, 8, 0, 27, 24, 24, 23, 17, 9, 8, 7, 9, 10, 11, 10, 10, 8, 5, 11, 13, 10, 16, 13, 11, 15, 16, 23, 18, 6, 11, 10, 4, 3, 23, 28, 23, 26, 22, 25, 28, 25, 22, 27, 18, 17, 19, 18, 17 |
  71, 77, 61, 66, 54, 15, 11, 13, 13, 10, 22, 18, 16, 23, 21, 34, 31, 29, 28, 34, 23, 25, 26, 25, 24, 23, 24, 21, 22, 24, 18, 18, 16, 22, 13, 16, 16, 12, 17, 12, 33, 35, 32, 36, 35, 14, 14, 21, 16, 19, 46, 38, 47, 38, 45, 26, 24, 26, 28, 23, 29, 26, 27, 25, 27, 0, 4, 8, 8, 14, 25, 23, 27, 21, 27, 37, 34, 36, 33, 32, 27, 26, 24, 31, 30, 38, 41, 42, 50, 44, 29, 32, 33, 28, 30, 50, 55, 50, 52, 48, 52, 54, 51, 49, 53, 27, 30, 29, 33, 24 |
  68, 74, 58, 64, 51, 12, 8, 10, 11, 6, 22, 20, 17, 23, 22, 32, 30, 27, 26, 32, 20, 22, 24, 22, 22, 20, 21, 18, 19, 22, 17, 18, 14, 21, 12, 15, 16, 12, 16, 14, 30, 32, 30, 34, 33, 10, 12, 18, 12, 16, 43, 36, 44, 36, 43, 24, 22, 24, 25, 21, 26, 23, 25, 23, 24, 5, 0, 10, 4, 11, 23, 21, 25, 19, 26, 34, 30, 33, 30, 29, 25, 24, 22, 30, 29, 35, 38, 39, 47, 41, 26, 29, 29, 25, 27, 47, 52, 47, 50, 45, 49, 52, 49, 46, 50, 26, 29, 28, 32, 24 |
  69, 73, 58, 63, 51, 17, 10, 16, 16, 12, 17, 15, 12, 18, 16, 30, 27, 25, 24, 30, 21, 23, 24, 23, 23, 20, 20, 18, 18, 22, 14, 14, 12, 18, 10, 11, 11, 7, 12, 9, 30, 31, 28, 33, 31, 12, 11, 18, 14, 17, 42, 35, 43, 34, 42, 22, 21, 23, 24, 19, 26, 23, 24, 22, 24, 5, 8, 0, 9, 10, 21, 19, 24, 17, 24, 35, 31, 33, 30, 29, 23, 22, 20, 27, 26, 35, 38, 39, 46, 42, 27, 30, 30, 26, 27, 47, 52, 47, 50, 45, 49, 50, 47, 45, 49, 23, 26, 24, 29, 20 |
  66, 72, 56, 62, 49, 13, 7, 12, 12, 8, 19, 19, 16, 21, 20, 30, 28, 25, 24, 30, 18, 21, 22, 20, 20, 18, 19, 16, 17, 20, 15, 16, 12, 18, 10, 13, 14, 10, 14, 12, 28, 30, 28, 32, 30, 9, 10, 16, 11, 14, 41, 34, 42, 34, 41, 22, 20, 22, 24, 18, 24, 21, 23, 21, 23, 8, 4, 9, 0, 9, 21, 19, 23, 17, 24, 32, 29, 30, 28, 27, 23, 23, 20, 28, 27, 33, 36, 38, 45, 40, 24, 27, 28, 23, 25, 45, 50, 45, 48, 43, 47, 50, 47, 44, 49, 24, 27, 26, 30, 22 |
  62, 67, 52, 56, 44, 14, 3, 14, 16, 10, 15, 19, 15, 17, 17, 25, 23, 20, 18, 25, 14, 16, 17, 16, 16, 13, 14, 11, 12, 15, 11, 13, 8, 13, 5, 9, 12, 8, 11, 12, 24, 25, 23, 27, 26, 5, 5, 12, 7, 10, 36, 29, 38, 29, 36, 16, 15, 16, 18, 13, 19, 16, 18, 16, 17, 11, 9, 8, 8, 0, 16, 13, 18, 12, 18, 27, 24, 26, 24, 23, 18, 18, 15, 24, 22, 28, 31, 32, 40, 36, 20, 24, 24, 19, 20, 40, 45, 40, 43, 38, 42, 44, 41, 39, 43, 20, 23, 22, 25, 18 |
  51, 53, 38, 42, 30, 27, 16, 27, 30, 25, 10, 25, 20, 13, 17, 10, 8, 5, 5, 10, 10, 9, 12, 11, 12, 7, 4, 7, 5, 5, 10, 12, 10, 4, 12, 11, 16, 16, 12, 20, 10, 12, 8, 13, 11, 16, 12, 9, 13, 12, 22, 14, 23, 14, 23, 2, 4, 5, 6, 4, 9, 6, 7, 5, 9, 25, 23, 21, 21, 16, 0, 5, 7, 7, 10, 19, 17, 16, 15, 12, 4, 5, 2, 10, 7, 17, 22, 20, 27, 24, 14, 19, 17, 12, 11, 28, 33, 27, 32, 28, 29, 30, 26, 25, 28, 10, 10, 11, 12, 10 |
  52, 55, 39, 44, 32, 24, 14, 24, 27, 23, 10, 24, 19, 13, 17, 13, 11, 7, 6, 12, 8, 7, 11, 9, 11, 5, 2, 5, 3, 4, 9, 11, 9, 3, 10, 10, 15, 14, 11, 19, 11, 13, 10, 15, 13, 13, 10, 6, 11, 10, 24, 16, 24, 16, 24, 3, 3, 5, 6, 2, 9, 5, 7, 4, 8, 23, 21, 19, 19, 13, 4, 0, 9, 4, 12, 19, 16, 16, 15, 12, 6, 8, 4, 12, 10, 17, 22, 21, 28, 25, 13, 17, 16, 11, 11, 29, 34, 29, 33, 28, 30, 32, 28, 27, 30, 12, 12, 13, 14, 11 |
  49, 50, 36, 40, 28, 28, 18, 28, 31, 27, 12, 27, 23, 15, 20, 10, 8, 4, 3, 8, 10, 8, 12, 10, 12, 7, 5, 8, 7, 5, 12, 14, 12, 6, 14, 14, 19, 19, 14, 23, 7, 10, 5, 10, 9, 17, 14, 9, 15, 13, 19, 12, 20, 12, 20, 2, 4, 4, 4, 5, 7, 5, 5, 4, 7, 27, 25, 24, 23, 18, 7, 9, 0, 12, 3, 16, 15, 14, 12, 10, 5, 7, 5, 10, 6, 14, 19, 17, 24, 22, 13, 17, 16, 11, 10, 26, 30, 25, 29, 25, 26, 27, 24, 23, 26, 12, 11, 12, 12, 12 |
  53, 56, 41, 46, 34, 23, 12, 24, 26, 21, 10, 23, 18, 13, 16, 14, 12, 9, 8, 13, 8, 8, 12, 10, 11, 5, 3, 4, 2, 5, 8, 10, 7, 3, 8, 9, 14, 13, 10, 18, 13, 14, 11, 16, 14, 12, 8, 6, 10, 10, 25, 18, 26, 17, 26, 5, 4, 6, 8, 2, 10, 6, 8, 5, 9, 21, 19, 17, 17, 12, 6, 4, 12, 0, 12, 20, 17, 17, 16, 13, 7, 8, 4, 13, 10, 19, 23, 23, 30, 26, 14, 18, 17, 12, 12, 30, 36, 30, 34, 30, 32, 33, 30, 28, 32, 12, 13, 13, 15, 11 |
  50, 51, 36, 41, 29, 29, 19, 30, 32, 27, 10, 26, 21, 13, 18, 8, 6, 2, 5, 7, 12, 10, 14, 12, 14, 9, 6, 10, 8, 7, 12, 13, 12, 6, 14, 13, 17, 18, 13, 22, 9, 11, 6, 12, 10, 19, 15, 11, 16, 15, 20, 12, 20, 11, 22, 4, 6, 6, 6, 6, 10, 8, 8, 6, 10, 27, 26, 24, 24, 18, 6, 10, 4, 12, 0, 19, 17, 16, 15, 12, 3, 5, 4, 7, 5, 16, 21, 19, 25, 24, 15, 19, 18, 13, 12, 27, 32, 26, 31, 27, 27, 28, 24, 24, 26, 10, 9, 10, 10, 10 |
  35, 42, 27, 32, 20, 30, 26, 31, 35, 32, 28, 42, 37, 31, 35, 23, 22, 19, 14, 20, 14, 13, 11, 12, 12, 16, 17, 17, 18, 15, 27, 30, 26, 21, 25, 27, 33, 31, 29, 37, 11, 10, 15, 10, 14, 24, 24, 16, 22, 18, 17, 14, 20, 19, 13, 16, 16, 14, 13, 18, 10, 14, 12, 15, 11, 37, 34, 35, 32, 27, 19, 19, 16, 20, 19, 0, 5, 8, 7, 10, 21, 24, 21, 24, 21, 6, 5, 9, 16, 9, 8, 7, 5, 10, 9, 14, 19, 14, 16, 12, 18, 23, 23, 16, 24, 28, 26, 28, 26, 28 |
  38, 46, 30, 36, 23, 27, 23, 28, 31, 28, 26, 40, 35, 29, 33, 22, 21, 18, 12, 19, 11, 10, 8, 10, 10, 13, 14, 15, 16, 13, 25, 27, 23, 19, 23, 25, 30, 29, 26, 34, 11, 10, 15, 11, 14, 21, 21, 14, 18, 15, 19, 15, 22, 20, 16, 15, 14, 12, 12, 16, 9, 12, 10, 13, 10, 34, 30, 31, 29, 24, 17, 16, 15, 17, 17, 4, 0, 7, 7, 9, 19, 22, 19, 23, 20, 8, 8, 12, 19, 12, 5, 5, 2, 6, 6, 17, 23, 18, 20, 15, 21, 26, 25, 19, 26, 27, 25, 27, 25, 26 |
  37, 42, 27, 32, 20, 30, 25, 31, 35, 31, 25, 40, 35, 29, 33, 20, 19, 16, 12, 17, 13, 11, 10, 11, 12, 14, 15, 16, 16, 13, 25, 27, 24, 19, 24, 26, 31, 30, 27, 35, 9, 6, 12, 8, 11, 23, 22, 15, 21, 17, 16, 11, 18, 17, 12, 14, 14, 12, 11, 16, 9, 12, 10, 13, 10, 36, 33, 33, 30, 26, 16, 16, 14, 17, 16, 6, 8, 0, 2, 5, 18, 21, 18, 21, 18, 4, 6, 8, 15, 10, 8, 8, 6, 8, 7, 14, 20, 15, 17, 13, 18, 22, 21, 16, 22, 26, 24, 25, 23, 25 |
  39, 45, 29, 35, 22, 28, 23, 29, 32, 29, 24, 38, 33, 27, 31, 19, 18, 16, 10, 16, 11, 9, 8, 9, 10, 12, 13, 14, 14, 11, 23, 25, 22, 17, 22, 24, 29, 28, 25, 33, 9, 7, 12, 8, 11, 21, 20, 13, 18, 15, 17, 12, 19, 17, 14, 12, 12, 10, 10, 14, 7, 10, 9, 11, 8, 33, 30, 30, 28, 24, 15, 15, 12, 16, 15, 7, 7, 2, 0, 3, 17, 19, 16, 21, 17, 6, 8, 10, 17, 12, 5, 7, 5, 6, 5, 17, 22, 17, 20, 15, 20, 24, 23, 17, 24, 24, 23, 24, 23, 24 |
  41, 45, 30, 35, 22, 28, 22, 29, 32, 29, 21, 36, 30, 24, 28, 16, 15, 12, 7, 14, 10, 7, 8, 8, 10, 10, 10, 12, 12, 9, 21, 23, 19, 15, 20, 22, 27, 26, 23, 30, 5, 4, 9, 6, 9, 20, 19, 12, 17, 14, 16, 10, 18, 14, 14, 10, 10, 8, 6, 12, 4, 8, 6, 9, 5, 32, 29, 29, 27, 23, 12, 12, 10, 13, 12, 11, 10, 8, 6, 0, 14, 16, 14, 17, 14, 6, 10, 10, 18, 14, 7, 10, 7, 6, 3, 18, 24, 18, 21, 17, 20, 24, 22, 17, 23, 22, 20, 21, 19, 21 |
  52, 52, 38, 42, 31, 30, 19, 30, 32, 27, 8, 24, 19, 11, 16, 8, 5, 3, 8, 8, 13, 12, 16, 14, 16, 10, 8, 10, 9, 9, 10, 11, 11, 5, 14, 12, 16, 16, 12, 21, 11, 13, 8, 14, 11, 19, 14, 12, 16, 16, 22, 14, 22, 12, 24, 5, 7, 8, 9, 7, 11, 10, 10, 8, 11, 27, 25, 23, 23, 18, 4, 6, 5, 7, 3, 21, 19, 18, 17, 14, 0, 5, 4, 10, 7, 18, 24, 22, 27, 26, 17, 22, 20, 15, 14, 29, 34, 28, 33, 29, 29, 30, 26, 26, 28, 8, 7, 8, 9, 8 |
  55, 54, 40, 44, 33, 30, 19, 30, 32, 28, 6, 22, 17, 9, 14, 9, 6, 5, 10, 9, 15, 14, 18, 16, 17, 12, 10, 12, 10, 10, 9, 10, 11, 5, 14, 11, 14, 16, 10, 19, 13, 16, 10, 16, 13, 19, 15, 13, 17, 16, 23, 16, 24, 13, 26, 8, 9, 10, 11, 9, 14, 11, 12, 10, 13, 26, 24, 22, 23, 18, 5, 8, 7, 8, 5, 24, 22, 21, 19, 16, 4, 0, 7, 12, 9, 21, 26, 24, 30, 28, 19, 24, 22, 17, 16, 31, 36, 30, 36, 31, 31, 31, 27, 27, 29, 5, 5, 6, 8, 5 |
  53, 54, 40, 44, 33, 27, 16, 27, 29, 24, 8, 23, 18, 11, 15, 11, 9, 5, 7, 10, 11, 10, 14, 12, 14, 8, 5, 8, 6, 7, 8, 10, 9, 2, 11, 10, 14, 14, 10, 19, 12, 14, 10, 15, 13, 16, 12, 10, 14, 13, 23, 16, 24, 15, 24, 5, 5, 7, 8, 5, 10, 8, 9, 6, 10, 24, 22, 20, 20, 15, 2, 4, 5, 4, 4, 21, 19, 18, 16, 14, 6, 7, 0, 13, 10, 19, 24, 22, 29, 26, 16, 20, 19, 14, 13, 30, 35, 30, 34, 30, 30, 31, 28, 27, 30, 9, 10, 10, 11, 8 |
  52, 50, 36, 40, 30, 36, 24, 36, 38, 33, 11, 26, 22, 12, 17, 3, 3, 6, 12, 5, 19, 16, 21, 19, 21, 16, 13, 16, 14, 14, 14, 15, 16, 11, 19, 16, 19, 21, 16, 24, 13, 16, 9, 16, 12, 24, 20, 17, 22, 21, 20, 14, 19, 10, 24, 11, 12, 13, 13, 13, 16, 14, 14, 13, 16, 31, 30, 27, 28, 24, 10, 12, 10, 13, 7, 24, 23, 21, 21, 17, 8, 13, 13, 0, 5, 20, 25, 22, 27, 27, 22, 26, 24, 20, 18, 30, 34, 28, 34, 30, 28, 27, 23, 24, 25, 7, 3, 6, 3, 9 |
  50, 50, 35, 39, 28, 33, 23, 33, 36, 31, 11, 27, 23, 13, 18, 4, 2, 3, 9, 4, 16, 14, 17, 16, 18, 13, 10, 13, 12, 11, 14, 14, 15, 9, 18, 16, 19, 20, 15, 24, 10, 12, 6, 13, 10, 22, 18, 15, 20, 19, 18, 12, 18, 9, 22, 8, 10, 10, 10, 10, 12, 11, 11, 10, 13, 30, 29, 26, 27, 22, 7, 10, 6, 10, 5, 21, 20, 18, 17, 14, 6, 9, 10, 8, 0, 17, 23, 20, 25, 24, 19, 23, 21, 16, 15, 28, 32, 26, 31, 28, 27, 26, 22, 23, 24, 9, 6, 8, 6, 10 |
  35, 40, 24, 29, 16, 34, 27, 35, 38, 34, 26, 41, 36, 29, 33, 18, 17, 16, 12, 16, 16, 13, 13, 14, 15, 16, 16, 17, 18, 14, 26, 28, 25, 20, 26, 27, 32, 31, 28, 36, 8, 5, 12, 5, 9, 26, 24, 17, 23, 20, 12, 9, 15, 15, 9, 15, 16, 13, 12, 17, 10, 13, 12, 14, 11, 38, 35, 35, 33, 28, 17, 17, 14, 19, 16, 6, 8, 4, 6, 6, 18, 21, 19, 20, 17, 0, 5, 8, 12, 8, 11, 12, 10, 11, 9, 12, 17, 12, 16, 12, 15, 19, 17, 12, 19, 25, 23, 25, 22, 25 |
  31, 38, 23, 28, 16, 35, 30, 36, 39, 36, 30, 45, 41, 34, 38, 24, 23, 21, 17, 21, 18, 16, 15, 16, 17, 19, 20, 21, 22, 18, 30, 33, 29, 24, 29, 31, 37, 36, 32, 40, 13, 10, 17, 11, 14, 28, 28, 21, 26, 23, 15, 13, 18, 20, 10, 19, 20, 17, 16, 21, 14, 17, 16, 18, 15, 41, 38, 38, 36, 31, 22, 22, 19, 23, 21, 5, 8, 6, 8, 10, 24, 26, 24, 25, 23, 6, 0, 10, 14, 6, 12, 11, 10, 13, 12, 10, 15, 10, 12, 8, 14, 19, 20, 13, 21, 30, 28, 30, 27, 30 |
  31, 36, 20, 25, 12, 38, 31, 39, 42, 38, 29, 44, 40, 32, 37, 20, 20, 19, 16, 17, 20, 17, 17, 18, 19, 20, 20, 22, 22, 18, 30, 31, 29, 24, 30, 30, 36, 36, 31, 40, 11, 9, 14, 8, 11, 30, 29, 22, 27, 24, 10, 9, 12, 15, 5, 19, 19, 17, 16, 21, 14, 17, 16, 18, 16, 42, 39, 39, 38, 32, 20, 21, 17, 23, 19, 9, 12, 8, 10, 10, 22, 24, 22, 22, 20, 6, 8, 0, 9, 7, 15, 15, 13, 15, 13, 9, 13, 8, 12, 9, 10, 15, 14, 8, 15, 28, 25, 27, 24, 28 |
  26, 28, 12, 17, 5, 45, 39, 46, 50, 46, 35, 51, 46, 38, 42, 24, 24, 24, 23, 22, 27, 25, 24, 26, 27, 27, 27, 29, 29, 26, 36, 38, 36, 30, 37, 38, 42, 42, 38, 47, 17, 16, 20, 14, 16, 37, 36, 29, 35, 32, 9, 14, 11, 19, 5, 25, 26, 24, 22, 28, 21, 24, 23, 25, 23, 50, 47, 46, 45, 40, 27, 28, 24, 30, 25, 16, 19, 15, 17, 18, 27, 30, 29, 27, 25, 12, 14, 7, 0, 10, 23, 22, 20, 23, 21, 5, 8, 3, 9, 9, 3, 9, 11, 3, 11, 33, 30, 32, 28, 34 |
  27, 34, 19, 24, 12, 39, 34, 40, 43, 40, 33, 49, 43, 36, 41, 25, 24, 24, 19, 22, 22, 20, 19, 20, 21, 23, 24, 25, 25, 22, 34, 36, 32, 27, 33, 34, 39, 39, 36, 44, 15, 13, 19, 12, 16, 32, 31, 24, 30, 26, 13, 14, 16, 20, 7, 23, 23, 21, 19, 24, 17, 21, 19, 22, 18, 44, 41, 42, 40, 36, 24, 25, 22, 26, 24, 9, 12, 10, 12, 14, 26, 28, 26, 27, 24, 8, 6, 6, 9, 0, 16, 15, 14, 17, 16, 5, 11, 6, 8, 4, 10, 16, 17, 10, 18, 33, 30, 32, 28, 33 |
  43, 50, 35, 39, 27, 23, 18, 24, 27, 24, 23, 36, 30, 26, 30, 21, 19, 16, 10, 19, 7, 6, 3, 5, 5, 9, 11, 11, 12, 10, 21, 24, 19, 16, 18, 21, 27, 24, 23, 30, 11, 10, 14, 12, 14, 16, 16, 10, 14, 10, 22, 16, 24, 20, 19, 12, 11, 10, 10, 12, 7, 9, 8, 10, 6, 29, 26, 27, 24, 20, 14, 13, 13, 14, 15, 8, 5, 8, 5, 7, 17, 19, 16, 22, 19, 11, 12, 15, 23, 16, 0, 4, 5, 3, 9, 22, 27, 22, 24, 20, 25, 29, 28, 23, 29, 24, 24, 24, 24, 24 |
  40, 49, 34, 39, 26, 24, 21, 26, 29, 26, 27, 40, 35, 30, 34, 25, 24, 20, 15, 23, 11, 11, 7, 10, 9, 13, 16, 15, 16, 14, 26, 28, 23, 20, 22, 25, 31, 29, 27, 34, 14, 13, 18, 15, 17, 19, 20, 14, 17, 14, 23, 18, 26, 24, 19, 16, 16, 14, 14, 16, 11, 13, 12, 14, 11, 32, 29, 30, 27, 24, 19, 17, 17, 18, 19, 7, 5, 8, 7, 10, 22, 24, 20, 26, 23, 12, 11, 15, 22, 15, 6, 0, 5, 9, 13, 20, 25, 21, 22, 17, 24, 30, 29, 23, 30, 29, 28, 29, 28, 28 |
  39, 47, 32, 37, 24, 26, 22, 27, 30, 27, 26, 39, 34, 29, 33, 23, 22, 19, 13, 20, 11, 10, 7, 9, 9, 12, 14, 14, 16, 13, 24, 27, 23, 19, 22, 25, 30, 28, 26, 34, 12, 10, 16, 12, 15, 19, 20, 13, 17, 14, 21, 16, 24, 21, 17, 15, 14, 12, 12, 16, 9, 12, 11, 13, 10, 33, 29, 30, 28, 24, 17, 16, 16, 17, 18, 5, 2, 6, 5, 7, 20, 22, 19, 24, 21, 10, 10, 13, 20, 14, 6, 6, 0, 7, 11, 19, 24, 19, 21, 16, 23, 27, 26, 21, 27, 27, 26, 27, 26, 26 |
  44, 50, 35, 40, 27, 23, 17, 24, 27, 24, 21, 34, 29, 24, 27, 19, 17, 14, 9, 17, 5, 5, 2, 4, 4, 7, 9, 9, 10, 7, 19, 22, 17, 14, 16, 19, 25, 23, 21, 28, 10, 10, 12, 12, 13, 15, 15, 8, 13, 10, 21, 15, 24, 19, 19, 10, 9, 8, 8, 10, 5, 6, 6, 8, 4, 28, 25, 26, 23, 19, 12, 11, 11, 12, 13, 10, 6, 8, 6, 6, 15, 17, 14, 20, 16, 11, 13, 15, 23, 17, 6, 9, 8, 0, 7, 22, 27, 22, 25, 21, 25, 29, 27, 23, 28, 22, 22, 23, 22, 22 |
  42, 48, 32, 38, 25, 26, 19, 27, 30, 26, 20, 34, 29, 24, 27, 17, 16, 12, 7, 15, 7, 5, 5, 5, 7, 8, 9, 10, 10, 7, 19, 22, 17, 13, 18, 20, 25, 24, 21, 29, 7, 7, 10, 9, 10, 17, 16, 10, 15, 12, 19, 12, 21, 16, 17, 9, 9, 7, 6, 10, 3, 6, 5, 7, 3, 30, 27, 27, 25, 20, 11, 11, 10, 12, 12, 9, 6, 7, 5, 3, 14, 16, 13, 18, 15, 9, 12, 13, 21, 16, 8, 10, 9, 4, 0, 20, 26, 20, 24, 19, 23, 26, 24, 20, 26, 21, 20, 21, 20, 20 |
  24, 29, 14, 19, 8, 44, 39, 45, 48, 45, 37, 53, 48, 40, 44, 27, 27, 27, 24, 25, 27, 25, 24, 25, 26, 27, 28, 30, 30, 26, 38, 40, 37, 31, 38, 38, 44, 43, 39, 48, 19, 17, 22, 16, 19, 37, 36, 29, 35, 31, 13, 16, 16, 22, 7, 27, 27, 25, 24, 29, 22, 25, 24, 26, 23, 50, 47, 47, 45, 40, 28, 29, 26, 30, 27, 14, 17, 14, 17, 18, 29, 31, 30, 30, 28, 12, 10, 9, 5, 5, 22, 20, 19, 22, 20, 0, 6, 5, 5, 6, 7, 13, 16, 8, 16, 36, 33, 35, 31, 36 |
  19, 24, 10, 15, 6, 49, 44, 50, 53, 50, 41, 57, 52, 44, 50, 31, 31, 31, 29, 29, 32, 30, 29, 30, 31, 32, 33, 35, 35, 31, 42, 44, 42, 36, 42, 44, 49, 48, 44, 53, 24, 22, 27, 20, 24, 42, 41, 34, 40, 37, 16, 20, 17, 26, 11, 31, 32, 30, 28, 34, 27, 30, 28, 31, 28, 55, 52, 52, 50, 45, 33, 34, 30, 36, 32, 19, 23, 20, 22, 24, 34, 36, 35, 34, 32, 17, 15, 13, 8, 11, 27, 25, 24, 27, 26, 10, 0, 11, 9, 10, 7, 12, 16, 10, 16, 40, 37, 39, 35, 41 |
  24, 28, 13, 18, 6, 44, 39, 46, 49, 45, 36, 52, 47, 39, 44, 26, 26, 26, 23, 24, 27, 25, 24, 25, 26, 27, 27, 29, 29, 26, 37, 39, 36, 30, 37, 38, 43, 42, 39, 48, 18, 16, 21, 15, 17, 37, 36, 29, 35, 31, 11, 15, 13, 21, 5, 26, 27, 24, 23, 28, 22, 24, 23, 25, 23, 50, 47, 47, 45, 40, 27, 29, 25, 30, 26, 14, 18, 15, 17, 18, 28, 30, 30, 28, 26, 12, 10, 8, 3, 6, 22, 21, 19, 22, 20, 6, 8, 0, 10, 12, 5, 11, 13, 6, 13, 35, 31, 34, 30, 36 |
  20, 28, 14, 19, 10, 46, 41, 47, 50, 48, 41, 56, 51, 44, 49, 31, 31, 30, 27, 29, 30, 28, 26, 28, 28, 30, 31, 33, 33, 30, 41, 43, 40, 35, 41, 42, 47, 47, 43, 51, 23, 20, 26, 19, 23, 40, 39, 32, 37, 34, 16, 20, 19, 26, 11, 30, 30, 28, 27, 32, 25, 28, 27, 29, 26, 52, 50, 50, 48, 43, 32, 33, 29, 34, 31, 16, 20, 17, 20, 21, 33, 36, 34, 34, 31, 16, 12, 12, 9, 8, 24, 22, 21, 25, 24, 6, 5, 10, 0, 6, 9, 16, 19, 12, 18, 40, 37, 39, 35, 40 |
  24, 32, 17, 23, 12, 41, 37, 43, 46, 43, 37, 52, 47, 40, 44, 28, 28, 27, 23, 26, 25, 24, 22, 24, 24, 26, 27, 28, 29, 25, 37, 39, 36, 31, 36, 38, 43, 42, 39, 47, 19, 16, 23, 16, 19, 35, 35, 28, 33, 30, 16, 17, 18, 24, 9, 26, 26, 24, 23, 28, 21, 24, 23, 25, 22, 48, 45, 45, 43, 38, 28, 28, 25, 30, 27, 12, 15, 13, 15, 17, 29, 31, 30, 30, 28, 12, 8, 9, 9, 4, 20, 17, 16, 21, 19, 7, 6, 11, 6, 0, 10, 16, 19, 11, 19, 36, 33, 36, 32, 37 |
  25, 25, 10, 15, 2, 48, 41, 49, 52, 49, 37, 53, 48, 40, 44, 26, 26, 27, 25, 24, 30, 27, 27, 28, 29, 29, 29, 31, 31, 28, 38, 40, 38, 32, 39, 40, 44, 44, 40, 49, 20, 18, 22, 16, 19, 40, 38, 31, 37, 34, 10, 16, 12, 20, 7, 27, 28, 26, 24, 30, 24, 27, 25, 27, 25, 52, 49, 49, 47, 42, 29, 30, 26, 32, 27, 18, 21, 18, 20, 20, 29, 31, 30, 28, 27, 15, 14, 10, 3, 10, 25, 24, 23, 25, 23, 7, 7, 5, 9, 10, 0, 10, 13, 8, 12, 35, 31, 34, 29, 36 |
  29, 24, 10, 13, 7, 51, 44, 52, 55, 52, 37, 53, 49, 39, 44, 24, 26, 27, 26, 23, 33, 30, 30, 31, 32, 31, 31, 34, 33, 30, 39, 40, 39, 33, 41, 41, 44, 45, 41, 50, 22, 20, 23, 18, 19, 42, 40, 34, 40, 37, 9, 16, 9, 19, 11, 29, 30, 28, 26, 31, 26, 29, 27, 29, 28, 54, 52, 50, 50, 44, 30, 32, 27, 33, 28, 23, 26, 22, 24, 24, 30, 31, 31, 27, 26, 19, 19, 15, 9, 16, 29, 30, 27, 29, 26, 13, 12, 11, 16, 16, 8, 0, 5, 11, 4, 34, 30, 33, 28, 36 |
  34, 27, 14, 18, 10, 50, 41, 50, 53, 49, 33, 49, 44, 35, 40, 20, 22, 23, 24, 19, 30, 27, 29, 29, 30, 29, 28, 30, 30, 27, 35, 36, 36, 30, 38, 37, 41, 41, 37, 46, 19, 18, 19, 16, 16, 40, 38, 31, 37, 35, 6, 13, 5, 14, 11, 26, 27, 25, 24, 28, 24, 26, 24, 26, 25, 51, 49, 47, 47, 41, 26, 28, 24, 30, 24, 23, 25, 21, 23, 22, 26, 27, 28, 23, 22, 17, 20, 14, 11, 17, 28, 29, 26, 27, 24, 16, 16, 13, 19, 19, 11, 8, 0, 14, 8, 30, 26, 28, 23, 31 |
  29, 28, 13, 18, 6, 45, 38, 46, 49, 46, 33, 49, 44, 36, 41, 22, 23, 23, 21, 20, 27, 24, 24, 25, 26, 26, 26, 28, 28, 24, 35, 36, 35, 28, 36, 36, 41, 41, 37, 45, 16, 15, 18, 13, 15, 37, 35, 28, 34, 31, 6, 12, 8, 16, 4, 24, 25, 23, 21, 27, 21, 24, 22, 24, 22, 49, 46, 45, 44, 39, 25, 27, 23, 28, 24, 16, 19, 16, 17, 17, 26, 27, 27, 24, 23, 12, 13, 8, 3, 10, 23, 23, 21, 23, 20, 8, 10, 6, 12, 11, 7, 12, 15, 0, 14, 31, 28, 30, 25, 32 |
  32, 25, 13, 16, 10, 51, 43, 52, 55, 51, 35, 51, 46, 37, 42, 22, 24, 25, 25, 21, 32, 29, 30, 30, 32, 30, 30, 33, 32, 29, 37, 38, 38, 31, 40, 39, 42, 44, 39, 48, 20, 20, 21, 17, 18, 42, 39, 33, 39, 36, 8, 15, 6, 16, 12, 27, 29, 27, 25, 30, 26, 28, 26, 28, 27, 53, 50, 49, 49, 43, 28, 30, 26, 32, 26, 24, 26, 22, 24, 23, 28, 29, 30, 25, 24, 19, 21, 15, 11, 18, 29, 30, 27, 28, 26, 16, 16, 13, 18, 19, 10, 8, 1, 12, 0, 32, 28, 30, 25, 33 |
  59, 57, 43, 47, 37, 34, 22, 33, 35, 30, 5, 19, 16, 6, 10, 10, 10, 10, 15, 12, 20, 19, 23, 21, 23, 16, 14, 16, 14, 16, 10, 9, 13, 10, 16, 12, 13, 16, 10, 18, 18, 21, 14, 21, 17, 23, 17, 17, 21, 21, 26, 20, 26, 16, 30, 13, 14, 15, 16, 13, 19, 16, 17, 15, 18, 27, 26, 23, 24, 20, 10, 12, 12, 12, 10, 28, 27, 26, 24, 22, 8, 5, 9, 7, 9, 25, 30, 28, 33, 33, 24, 29, 27, 22, 21, 36, 40, 35, 40, 36, 35, 34, 30, 31, 32, 0, 5, 3, 8, 3 |
  55, 53, 39, 43, 33, 36, 24, 36, 37, 32, 9, 24, 20, 10, 14, 6, 6, 8, 14, 9, 20, 18, 22, 21, 22, 16, 14, 16, 15, 15, 12, 12, 15, 10, 19, 15, 16, 19, 14, 22, 16, 18, 12, 18, 15, 24, 20, 18, 22, 22, 23, 17, 22, 12, 26, 12, 14, 14, 14, 13, 17, 16, 16, 14, 17, 30, 29, 26, 27, 23, 10, 12, 11, 13, 9, 26, 25, 24, 23, 20, 7, 5, 10, 3, 6, 23, 28, 25, 30, 30, 24, 28, 26, 22, 20, 33, 37, 31, 37, 33, 31, 30, 26, 28, 28, 5, 0, 3, 4, 6 |
  58, 55, 41, 45, 36, 35, 24, 35, 37, 32, 8, 22, 18, 8, 12, 9, 8, 10, 15, 10, 21, 19, 23, 22, 23, 17, 15, 17, 15, 16, 12, 11, 15, 11, 18, 14, 15, 18, 12, 20, 17, 20, 14, 20, 16, 24, 19, 19, 22, 22, 25, 19, 24, 14, 28, 13, 14, 16, 16, 14, 19, 17, 17, 15, 19, 29, 28, 24, 26, 22, 11, 13, 12, 13, 10, 28, 27, 25, 24, 21, 8, 6, 10, 6, 8, 25, 30, 27, 32, 32, 24, 29, 27, 23, 21, 35, 39, 34, 39, 36, 34, 33, 28, 30, 30, 3, 3, 0, 5, 5 |
  53, 50, 37, 41, 30, 38, 26, 38, 40, 35, 12, 27, 23, 13, 17, 4, 5, 8, 14, 7, 21, 19, 23, 22, 24, 18, 16, 18, 16, 16, 16, 16, 18, 13, 21, 18, 20, 22, 17, 25, 15, 17, 11, 17, 13, 27, 22, 20, 24, 24, 20, 15, 20, 10, 24, 13, 15, 15, 15, 15, 17, 16, 16, 15, 18, 33, 32, 29, 30, 25, 12, 14, 12, 15, 10, 26, 25, 23, 23, 19, 9, 8, 11, 3, 6, 22, 27, 24, 28, 28, 24, 28, 26, 22, 20, 31, 35, 30, 35, 32, 29, 28, 23, 25, 25, 8, 4, 5, 0, 10 |
  59, 58, 44, 49, 38, 31, 20, 30, 33, 28, 3, 18, 14, 4, 9, 12, 10, 10, 14, 13, 18, 17, 22, 19, 21, 16, 13, 14, 12, 14, 7, 7, 10, 8, 14, 10, 10, 13, 8, 16, 18, 21, 15, 21, 18, 21, 16, 16, 19, 19, 27, 21, 27, 17, 30, 12, 13, 14, 15, 12, 18, 16, 16, 14, 17, 24, 24, 20, 22, 18, 10, 11, 12, 11, 10, 28, 26, 25, 24, 21, 8, 5, 8, 9, 10, 25, 30, 28, 34, 33, 24, 28, 26, 22, 20, 36, 41, 36, 40, 37, 36, 36, 31, 32, 33, 3, 6, 5, 10, 0 |];

% acces_autorise[v, c] : 1=autorisé, 0=interdit
% tier1 (médina stricte) : triporteur uniquement
% tier2 (proche médina)  : triporteur + fourgonnette, camion interdit
acces_autorise = 
[|
  1, 1, 1, 1, 1, 1, 1, 1, 1, 1, 1, 1, 1, 1, 1, 1, 1, 1, 1, 1, 1, 1, 1, 1, 1, 1, 1, 1, 1, 1, 1, 1, 1, 1, 1, 1, 1, 1, 1, 1, 1, 1, 1, 1, 1, 1, 1, 1, 1, 1, 1, 1, 1, 1, 1, 1, 1, 1, 1, 1, 1, 1, 1, 1, 1, 1, 1, 1, 1, 1, 1, 1, 1, 1, 1, 1, 1, 1, 1, 1, 1, 1, 1, 1, 1, 1, 1, 1, 1, 1, 1, 1, 1, 1, 1, 1, 1, 1, 1, 1, 1, 1, 1, 1, 1, 1, 1, 1, 1 |
  1, 1, 1, 1, 1, 1, 1, 1, 1, 1, 1, 1, 1, 1, 1, 1, 1, 1, 1, 1, 1, 1, 1, 1, 1, 1, 1, 1, 1, 1, 1, 1, 1, 1, 1, 1, 1, 1, 1, 1, 1, 1, 1, 1, 1, 1, 1, 1, 1, 1, 1, 1, 1, 1, 1, 1, 1, 1, 1, 1, 1, 1, 1, 1, 1, 1, 1, 1, 1, 1, 1, 1, 1, 1, 1, 1, 1, 1, 1, 1, 1, 1, 1, 1, 1, 1, 1, 1, 1, 1, 1, 1, 1, 1, 1, 1, 1, 1, 1, 1, 1, 1, 1, 1, 1, 1, 1, 1, 1 |
  1, 1, 1, 1, 1, 1, 1, 1, 1, 1, 1, 1, 1, 1, 1, 1, 1, 1, 1, 1, 1, 1, 1, 1, 1, 1, 1, 1, 1, 1, 1, 1, 1, 1, 1, 1, 1, 1, 1, 1, 1, 1, 1, 1, 1, 1, 1, 1, 1, 1, 1, 1, 1, 1, 1, 1, 1, 1, 1, 1, 1, 1, 1, 1, 1, 1, 1, 1, 1, 1, 1, 1, 1, 1, 1, 1, 1, 1, 1, 1, 1, 1, 1, 1, 1, 1, 1, 1, 1, 1, 1, 1, 1, 1, 1, 1, 1, 1, 1, 1, 1, 1, 1, 1, 1, 1, 1, 1, 1 |
  1, 1, 1, 1, 1, 1, 1, 1, 1, 1, 1, 1, 1, 1, 1, 1, 1, 1, 1, 1, 1, 1, 1, 1, 1, 1, 1, 1, 1, 1, 1, 1, 1, 1, 1, 1, 1, 1, 1, 1, 1, 1, 1, 1, 1, 1, 1, 1, 1, 1, 1, 1, 1, 1, 1, 1, 1, 1, 1, 1, 1, 1, 1, 1, 1, 1, 1, 1, 1, 1, 1, 1, 1, 1, 1, 1, 1, 1, 1, 1, 1, 1, 1, 1, 1, 1, 1, 1, 1, 1, 1, 1, 1, 1, 1, 1, 1, 1, 1, 1, 1, 1, 1, 1, 1, 1, 1, 1, 1 |
  1, 1, 1, 1, 1, 1, 1, 1, 1, 1, 1, 1, 1, 1, 1, 1, 1, 1, 1, 1, 1, 1, 1, 1, 1, 1, 1, 1, 1, 1, 1, 1, 1, 1, 1, 1, 1, 1, 1, 1, 1, 1, 1, 1, 1, 1, 1, 1, 1, 1, 1, 1, 1, 1, 1, 1, 1, 1, 1, 1, 1, 1, 1, 1, 1, 1, 1, 1, 1, 1, 1, 1, 1, 1, 1, 1, 1, 1, 1, 1, 1, 1, 1, 1, 1, 1, 1, 1, 1, 1, 1, 1, 1, 1, 1, 1, 1, 1, 1, 1, 1, 1, 1, 1, 1, 1, 1, 1, 1 |
  1, 1, 1, 1, 1, 1, 1, 1, 1, 1, 1, 1, 1, 1, 1, 1, 1, 1, 1, 1, 1, 1, 1, 1, 1, 1, 1, 1, 1, 1, 1, 1, 1, 1, 1, 1, 1, 1, 1, 1, 1, 1, 1, 1, 1, 1, 1, 1, 1, 1, 1, 1, 1, 1, 1, 1, 1, 1, 1, 1, 1, 1, 1, 1, 1, 1, 1, 1, 1, 1, 1, 1, 1, 1, 1, 1, 1, 1, 1, 1, 1, 1, 1, 1, 1, 1, 1, 1, 1, 1, 1, 1, 1, 1, 1, 1, 1, 1, 1, 1, 1, 1, 1, 1, 1, 1, 1, 1, 1 |
  1, 1, 1, 1, 1, 1, 1, 1, 1, 1, 1, 1, 1, 1, 1, 1, 1, 1, 1, 1, 1, 1, 1, 1, 1, 1, 1, 1, 1, 1, 1, 1, 1, 1, 1, 1, 1, 1, 1, 1, 1, 1, 1, 1, 1, 1, 1, 1, 1, 1, 1, 1, 1, 1, 1, 1, 1, 1, 1, 1, 1, 1, 1, 1, 1, 1, 1, 1, 1, 1, 1, 1, 1, 1, 1, 1, 1, 1, 1, 1, 1, 1, 1, 1, 1, 1, 1, 1, 1, 1, 1, 1, 1, 1, 1, 1, 1, 1, 1, 1, 1, 1, 1, 1, 1, 1, 1, 1, 1 |
  1, 1, 1, 1, 1, 1, 1, 1, 1, 1, 1, 1, 1, 1, 1, 1, 1, 1, 1, 1, 1, 1, 1, 1, 1, 1, 1, 1, 1, 1, 1, 1, 1, 1, 1, 1, 1, 1, 1, 1, 1, 1, 1, 1, 1, 1, 1, 1, 1, 1, 1, 1, 1, 1, 1, 1, 1, 1, 1, 1, 1, 1, 1, 1, 1, 1, 1, 1, 1, 1, 1, 1, 1, 1, 1, 1, 1, 1, 1, 1, 1, 1, 1, 1, 1, 1, 1, 1, 1, 1, 1, 1, 1, 1, 1, 1, 1, 1, 1, 1, 1, 1, 1, 1, 1, 1, 1, 1, 1 |
  1, 1, 1, 1, 1, 1, 1, 1, 1, 1, 1, 1, 1, 1, 1, 1, 1, 1, 1, 1, 1, 1, 1, 1, 1, 1, 1, 1, 1, 1, 1, 1, 1, 1, 1, 1, 1, 1, 1, 1, 1, 1, 1, 1, 1, 1, 1, 1, 1, 1, 1, 1, 1, 1, 1, 1, 1, 1, 1, 1, 1, 1, 1, 1, 1, 1, 1, 1, 1, 1, 1, 1, 1, 1, 1, 1, 1, 1, 1, 1, 1, 1, 1, 1, 1, 1, 1, 1, 1, 1, 1, 1, 1, 1, 1, 1, 1, 1, 1, 1, 1, 1, 1, 1, 1, 1, 1, 1, 1 |
  1, 1, 1, 1, 1, 1, 1, 1, 1, 1, 1, 1, 1, 1, 1, 1, 1, 1, 1, 1, 1, 1, 1, 1, 1, 1, 1, 1, 1, 1, 1, 1, 1, 1, 1, 1, 1, 1, 1, 1, 1, 1, 1, 1, 1, 1, 1, 1, 1, 1, 1, 1, 1, 1, 1, 1, 1, 1, 1, 1, 1, 1, 1, 1, 1, 1, 1, 1, 1, 1, 1, 1, 1, 1, 1, 1, 1, 1, 1, 1, 1, 1, 1, 1, 1, 1, 1, 1, 1, 1, 1, 1, 1, 1, 1, 1, 1, 1, 1, 1, 1, 1, 1, 1, 1, 1, 1, 1, 1 |
  1, 1, 1, 1, 1, 1, 1, 1, 1, 1, 1, 1, 1, 1, 1, 1, 1, 1, 1, 1, 1, 1, 1, 1, 1, 1, 1, 1, 1, 1, 1, 1, 1, 1, 1, 1, 1, 1, 1, 1, 1, 1, 1, 1, 1, 1, 1, 1, 1, 1, 1, 1, 1, 1, 1, 1, 1, 1, 1, 1, 1, 1, 1, 1, 1, 1, 1, 1, 1, 1, 1, 1, 1, 1, 1, 1, 1, 1, 1, 1, 1, 1, 1, 1, 1, 1, 1, 1, 1, 1, 1, 1, 1, 1, 1, 1, 1, 1, 1, 1, 1, 1, 1, 1, 1, 1, 1, 1, 1 |
  1, 1, 1, 1, 1, 1, 1, 1, 1, 1, 1, 1, 1, 1, 1, 1, 1, 1, 1, 1, 1, 1, 1, 1, 1, 1, 1, 1, 1, 1, 1, 1, 1, 1, 1, 1, 1, 1, 1, 1, 1, 1, 1, 1, 1, 1, 1, 1, 1, 1, 1, 1, 1, 1, 1, 1, 1, 1, 1, 1, 1, 1, 1, 1, 1, 1, 1, 1, 1, 1, 1, 1, 1, 1, 1, 1, 1, 1, 1, 1, 1, 1, 1, 1, 1, 1, 1, 1, 1, 1, 1, 1, 1, 1, 1, 1, 1, 1, 1, 1, 1, 1, 1, 1, 1, 1, 1, 1, 1 |
  1, 1, 1, 1, 1, 1, 1, 1, 1, 1, 1, 1, 1, 1, 1, 1, 1, 1, 1, 1, 1, 1, 1, 1, 1, 1, 1, 1, 1, 1, 1, 1, 1, 1, 1, 1, 1, 1, 1, 1, 1, 1, 1, 1, 1, 1, 1, 1, 1, 1, 1, 1, 1, 1, 1, 1, 1, 1, 1, 1, 1, 1, 1, 1, 1, 1, 1, 1, 1, 1, 1, 1, 1, 1, 1, 1, 1, 1, 1, 1, 1, 1, 1, 1, 1, 1, 1, 1, 1, 1, 1, 1, 1, 1, 1, 1, 1, 1, 1, 1, 1, 1, 1, 1, 1, 1, 1, 1, 1 |
  1, 1, 1, 1, 1, 1, 1, 1, 1, 1, 1, 1, 1, 1, 1, 1, 1, 1, 1, 1, 1, 1, 1, 1, 1, 1, 1, 1, 1, 1, 1, 1, 1, 1, 1, 1, 1, 1, 1, 1, 1, 1, 1, 1, 1, 1, 1, 1, 1, 1, 1, 1, 1, 1, 1, 1, 1, 1, 1, 1, 1, 1, 1, 1, 1, 1, 1, 1, 1, 1, 1, 1, 1, 1, 1, 1, 1, 1, 1, 1, 1, 1, 1, 1, 1, 1, 1, 1, 1, 1, 1, 1, 1, 1, 1, 1, 1, 1, 1, 1, 1, 1, 1, 1, 1, 1, 1, 1, 1 |
  1, 1, 1, 1, 1, 1, 1, 1, 1, 1, 1, 1, 1, 1, 1, 1, 1, 1, 1, 1, 1, 1, 1, 1, 1, 1, 1, 1, 1, 1, 1, 1, 1, 1, 1, 1, 1, 1, 1, 1, 1, 1, 1, 1, 1, 1, 1, 1, 1, 1, 1, 1, 1, 1, 1, 1, 1, 1, 1, 1, 1, 1, 1, 1, 1, 1, 1, 1, 1, 1, 1, 1, 1, 1, 1, 1, 1, 1, 1, 1, 1, 1, 1, 1, 1, 1, 1, 1, 1, 1, 1, 1, 1, 1, 1, 1, 1, 1, 1, 1, 1, 1, 1, 1, 1, 1, 1, 1, 1 |
  1, 1, 1, 1, 1, 1, 1, 1, 1, 1, 1, 1, 1, 1, 1, 1, 1, 1, 1, 1, 1, 1, 1, 1, 1, 1, 1, 1, 1, 1, 1, 1, 1, 1, 1, 1, 1, 1, 1, 1, 1, 1, 1, 1, 1, 1, 1, 1, 1, 1, 1, 1, 1, 1, 1, 1, 1, 1, 1, 1, 1, 1, 1, 1, 1, 1, 1, 1, 1, 1, 1, 1, 1, 1, 1, 1, 1, 1, 1, 1, 1, 1, 1, 1, 1, 1, 1, 1, 1, 1, 1, 1, 1, 1, 1, 1, 1, 1, 1, 1, 1, 1, 1, 1, 1, 1, 1, 1, 1 |
  1, 1, 1, 1, 1, 1, 1, 1, 1, 1, 1, 1, 1, 1, 1, 1, 1, 1, 1, 1, 1, 1, 1, 1, 1, 1, 1, 1, 1, 1, 1, 1, 1, 1, 1, 1, 1, 1, 1, 1, 1, 1, 1, 1, 1, 1, 1, 1, 1, 1, 1, 1, 1, 1, 1, 1, 1, 1, 1, 1, 1, 1, 1, 1, 1, 1, 1, 1, 1, 1, 1, 1, 1, 1, 1, 1, 1, 1, 1, 1, 1, 1, 1, 1, 1, 1, 1, 1, 1, 1, 1, 1, 1, 1, 1, 1, 1, 1, 1, 1, 1, 1, 1, 1, 1, 1, 1, 1, 1 |
  1, 1, 1, 1, 1, 1, 1, 1, 1, 1, 1, 0, 1, 1, 1, 1, 1, 1, 1, 1, 1, 1, 1, 1, 1, 1, 1, 1, 1, 1, 1, 1, 1, 1, 1, 1, 1, 1, 0, 1, 1, 1, 1, 1, 1, 1, 1, 1, 1, 1, 1, 1, 1, 1, 1, 0, 1, 1, 1, 1, 1, 1, 1, 1, 1, 1, 1, 1, 1, 1, 1, 1, 1, 1, 1, 1, 1, 1, 1, 1, 1, 1, 1, 1, 1, 1, 1, 1, 1, 1, 1, 0, 0, 0, 1, 1, 1, 1, 1, 1, 1, 1, 1, 1, 1, 1, 0, 1, 1 |
  1, 1, 1, 1, 1, 1, 1, 1, 1, 1, 1, 0, 1, 1, 1, 1, 1, 1, 1, 1, 1, 1, 1, 1, 1, 1, 1, 1, 1, 1, 1, 1, 1, 1, 1, 1, 1, 1, 0, 1, 1, 1, 1, 1, 1, 1, 1, 1, 1, 1, 1, 1, 1, 1, 1, 0, 1, 1, 1, 1, 1, 1, 1, 1, 1, 1, 1, 1, 1, 1, 1, 1, 1, 1, 1, 1, 1, 1, 1, 1, 1, 1, 1, 1, 1, 1, 1, 1, 1, 1, 1, 0, 0, 0, 1, 1, 1, 1, 1, 1, 1, 1, 1, 1, 1, 1, 0, 1, 1 |
  1, 1, 1, 1, 1, 1, 1, 1, 1, 1, 1, 0, 1, 1, 1, 1, 1, 1, 1, 1, 1, 1, 1, 1, 1, 1, 1, 1, 1, 1, 1, 1, 1, 1, 1, 1, 1, 1, 0, 1, 1, 1, 1, 1, 1, 1, 1, 1, 1, 1, 1, 1, 1, 1, 1, 0, 1, 1, 1, 1, 1, 1, 1, 1, 1, 1, 1, 1, 1, 1, 1, 1, 1, 1, 1, 1, 1, 1, 1, 1, 1, 1, 1, 1, 1, 1, 1, 1, 1, 1, 1, 0, 0, 0, 1, 1, 1, 1, 1, 1, 1, 1, 1, 1, 1, 1, 0, 1, 1 |
  1, 1, 1, 1, 1, 1, 1, 1, 1, 1, 1, 0, 1, 1, 1, 1, 1, 1, 1, 1, 1, 1, 1, 1, 1, 1, 1, 1, 1, 1, 1, 1, 1, 1, 1, 1, 1, 1, 0, 1, 1, 1, 1, 1, 1, 1, 1, 1, 1, 1, 1, 1, 1, 1, 1, 0, 1, 1, 1, 1, 1, 1, 1, 1, 1, 1, 1, 1, 1, 1, 1, 1, 1, 1, 1, 1, 1, 1, 1, 1, 1, 1, 1, 1, 1, 1, 1, 1, 1, 1, 1, 0, 0, 0, 1, 1, 1, 1, 1, 1, 1, 1, 1, 1, 1, 1, 0, 1, 1 |
  1, 1, 1, 1, 1, 1, 1, 1, 1, 1, 1, 0, 1, 1, 1, 1, 1, 1, 1, 1, 1, 1, 1, 1, 1, 1, 1, 1, 1, 1, 1, 1, 1, 1, 1, 1, 1, 1, 0, 1, 1, 1, 1, 1, 1, 1, 1, 1, 1, 1, 1, 1, 1, 1, 1, 0, 1, 1, 1, 1, 1, 1, 1, 1, 1, 1, 1, 1, 1, 1, 1, 1, 1, 1, 1, 1, 1, 1, 1, 1, 1, 1, 1, 1, 1, 1, 1, 1, 1, 1, 1, 0, 0, 0, 1, 1, 1, 1, 1, 1, 1, 1, 1, 1, 1, 1, 0, 1, 1 |
  1, 1, 1, 1, 1, 1, 1, 1, 1, 1, 1, 0, 1, 1, 1, 1, 1, 1, 1, 1, 1, 1, 1, 1, 1, 1, 1, 1, 1, 1, 1, 1, 1, 1, 1, 1, 1, 1, 0, 1, 1, 1, 1, 1, 1, 1, 1, 1, 1, 1, 1, 1, 1, 1, 1, 0, 1, 1, 1, 1, 1, 1, 1, 1, 1, 1, 1, 1, 1, 1, 1, 1, 1, 1, 1, 1, 1, 1, 1, 1, 1, 1, 1, 1, 1, 1, 1, 1, 1, 1, 1, 0, 0, 0, 1, 1, 1, 1, 1, 1, 1, 1, 1, 1, 1, 1, 0, 1, 1 |
  1, 1, 1, 1, 1, 1, 1, 1, 1, 1, 1, 0, 1, 1, 1, 1, 1, 1, 1, 1, 1, 1, 1, 1, 1, 1, 1, 1, 1, 1, 1, 1, 1, 1, 1, 1, 1, 1, 0, 1, 1, 1, 1, 1, 1, 1, 1, 1, 1, 1, 1, 1, 1, 1, 1, 0, 1, 1, 1, 1, 1, 1, 1, 1, 1, 1, 1, 1, 1, 1, 1, 1, 1, 1, 1, 1, 1, 1, 1, 1, 1, 1, 1, 1, 1, 1, 1, 1, 1, 1, 1, 0, 0, 0, 1, 1, 1, 1, 1, 1, 1, 1, 1, 1, 1, 1, 0, 1, 1 |
  1, 1, 1, 0, 1, 1, 1, 1, 1, 0, 0, 0, 0, 1, 1, 1, 1, 1, 1, 0, 1, 1, 1, 0, 1, 1, 1, 0, 0, 1, 1, 1, 1, 1, 1, 1, 1, 1, 0, 1, 0, 1, 1, 1, 1, 1, 1, 1, 1, 1, 1, 1, 1, 1, 0, 0, 1, 1, 0, 1, 1, 0, 1, 0, 1, 1, 1, 1, 1, 0, 1, 1, 0, 1, 1, 1, 1, 0, 1, 1, 1, 1, 1, 1, 1, 1, 1, 1, 1, 0, 1, 0, 0, 0, 1, 1, 1, 1, 1, 1, 1, 1, 1, 1, 1, 1, 0, 1, 1 |
  1, 1, 1, 0, 1, 1, 1, 1, 1, 0, 0, 0, 0, 1, 1, 1, 1, 1, 1, 0, 1, 1, 1, 0, 1, 1, 1, 0, 0, 1, 1, 1, 1, 1, 1, 1, 1, 1, 0, 1, 0, 1, 1, 1, 1, 1, 1, 1, 1, 1, 1, 1, 1, 1, 0, 0, 1, 1, 0, 1, 1, 0, 1, 0, 1, 1, 1, 1, 1, 0, 1, 1, 0, 1, 1, 1, 1, 0, 1, 1, 1, 1, 1, 1, 1, 1, 1, 1, 1, 0, 1, 0, 0, 0, 1, 1, 1, 1, 1, 1, 1, 1, 1, 1, 1, 1, 0, 1, 1 |
  1, 1, 1, 0, 1, 1, 1, 1, 1, 0, 0, 0, 0, 1, 1, 1, 1, 1, 1, 0, 1, 1, 1, 0, 1, 1, 1, 0, 0, 1, 1, 1, 1, 1, 1, 1, 1, 1, 0, 1, 0, 1, 1, 1, 1, 1, 1, 1, 1, 1, 1, 1, 1, 1, 0, 0, 1, 1, 0, 1, 1, 0, 1, 0, 1, 1, 1, 1, 1, 0, 1, 1, 0, 1, 1, 1, 1, 0, 1, 1, 1, 1, 1, 1, 1, 1, 1, 1, 1, 0, 1, 0, 0, 0, 1, 1, 1, 1, 1, 1, 1, 1, 1, 1, 1, 1, 0, 1, 1 |
  1, 1, 1, 0, 1, 1, 1, 1, 1, 0, 0, 0, 0, 1, 1, 1, 1, 1, 1, 0, 1, 1, 1, 0, 1, 1, 1, 0, 0, 1, 1, 1, 1, 1, 1, 1, 1, 1, 0, 1, 0, 1, 1, 1, 1, 1, 1, 1, 1, 1, 1, 1, 1, 1, 0, 0, 1, 1, 0, 1, 1, 0, 1, 0, 1, 1, 1, 1, 1, 0, 1, 1, 0, 1, 1, 1, 1, 0, 1, 1, 1, 1, 1, 1, 1, 1, 1, 1, 1, 0, 1, 0, 0, 0, 1, 1, 1, 1, 1, 1, 1, 1, 1, 1, 1, 1, 0, 1, 1 |
  1, 1, 1, 0, 1, 1, 1, 1, 1, 0, 0, 0, 0, 1, 1, 1, 1, 1, 1, 0, 1, 1, 1, 0, 1, 1, 1, 0, 0, 1, 1, 1, 1, 1, 1, 1, 1, 1, 0, 1, 0, 1, 1, 1, 1, 1, 1, 1, 1, 1, 1, 1, 1, 1, 0, 0, 1, 1, 0, 1, 1, 0, 1, 0, 1, 1, 1, 1, 1, 0, 1, 1, 0, 1, 1, 1, 1, 0, 1, 1, 1, 1, 1, 1, 1, 1, 1, 1, 1, 0, 1, 0, 0, 0, 1, 1, 1, 1, 1, 1, 1, 1, 1, 1, 1, 1, 0, 1, 1 |
  1, 1, 1, 0, 1, 1, 1, 1, 1, 0, 0, 0, 0, 1, 1, 1, 1, 1, 1, 0, 1, 1, 1, 0, 1, 1, 1, 0, 0, 1, 1, 1, 1, 1, 1, 1, 1, 1, 0, 1, 0, 1, 1, 1, 1, 1, 1, 1, 1, 1, 1, 1, 1, 1, 0, 0, 1, 1, 0, 1, 1, 0, 1, 0, 1, 1, 1, 1, 1, 0, 1, 1, 0, 1, 1, 1, 1, 0, 1, 1, 1, 1, 1, 1, 1, 1, 1, 1, 1, 0, 1, 0, 0, 0, 1, 1, 1, 1, 1, 1, 1, 1, 1, 1, 1, 1, 0, 1, 1 |];
