% Instance générée automatiquement depuis Solomon
% Fichier : C101_25.dzn (Corrigé avec array2d)

n = 25;
K = 3; % <-- ON PASSE A 3 VEHICULES ICI (Demande totale = 430, Capacité = 200)
cap = 200;

demand = [10, 30, 10, 10, 10, 20, 20, 20, 10, 10, 10, 20, 30, 10, 40, 40, 20, 20, 10, 10, 20, 20, 10, 10, 40];

early = [912, 825, 65, 727, 15, 621, 170, 255, 534, 357, 448, 652, 30, 567, 384, 475, 99, 179, 278, 10, 914, 812, 732, 65, 169];

late = [967, 870, 146, 782, 67, 702, 225, 324, 605, 410, 505, 721, 92, 620, 429, 528, 148, 254, 345, 73, 965, 883, 777, 144, 224];

service = [90, 90, 90, 90, 90, 90, 90, 90, 90, 90, 90, 90, 90, 90, 90, 90, 90, 90, 90, 90, 90, 90, 90, 90, 90];

depot_early = 0;
depot_late  = 1236;

% dist[i,j] : distance entre i et j (0 = dépôt, 1..n = clients)
dist = array2d(0..n, 0..n, [
  0, 19, 21, 16, 18, 15, 19, 16, 18, 20, 17, 20, 38, 31, 39, 36, 40, 33, 35, 39, 10, 10, 12, 13, 15, 15,
  19, 0, 2, 4, 3, 4, 5, 5, 7, 7, 10, 10, 26, 24, 29, 28, 30, 28, 31, 32, 23, 22, 23, 21, 27, 26,
  21, 2, 0, 5, 4, 6, 5, 6, 7, 7, 11, 10, 25, 24, 27, 27, 29, 27, 30, 32, 25, 23, 25, 23, 28, 27,
  16, 4, 5, 0, 2, 1, 4, 2, 4, 6, 7, 8, 25, 22, 28, 26, 29, 26, 28, 30, 20, 18, 20, 18, 23, 22,
  18, 3, 4, 2, 0, 3, 2, 3, 4, 4, 7, 7, 24, 21, 26, 25, 28, 25, 28, 30, 22, 20, 21, 19, 25, 23,
  15, 4, 6, 1, 3, 0, 4, 2, 5, 6, 7, 8, 26, 22, 28, 27, 30, 26, 29, 31, 19, 18, 19, 17, 23, 21,
  19, 5, 5, 4, 2, 4, 0, 3, 2, 2, 6, 5, 22, 19, 24, 23, 26, 23, 26, 27, 21, 20, 21, 18, 24, 23,
  16, 5, 6, 2, 3, 2, 3, 0, 3, 4, 5, 6, 24, 20, 26, 24, 28, 24, 27, 29, 19, 17, 18, 16, 22, 21,
  18, 7, 7, 4, 4, 5, 2, 3, 0, 2, 4, 3, 21, 17, 23, 22, 25, 21, 24, 26, 20, 18, 19, 16, 22, 21,
  20, 7, 7, 6, 4, 6, 2, 4, 2, 0, 5, 3, 20, 17, 22, 21, 23, 21, 24, 25, 22, 20, 21, 18, 24, 22,
  17, 10, 11, 7, 7, 7, 6, 5, 4, 5, 0, 3, 21, 16, 23, 21, 24, 19, 22, 24, 17, 15, 16, 13, 19, 17,
  20, 10, 10, 8, 7, 8, 5, 6, 3, 3, 3, 0, 19, 14, 21, 19, 22, 18, 21, 23, 20, 18, 18, 16, 21, 20,
  38, 26, 25, 25, 24, 26, 22, 24, 21, 20, 21, 19, 0, 10, 3, 7, 5, 12, 14, 11, 35, 33, 33, 30, 35, 33,
  31, 24, 24, 22, 21, 22, 19, 20, 17, 17, 16, 14, 10, 0, 10, 5, 10, 4, 7, 9, 26, 24, 24, 21, 25, 23,
  39, 29, 27, 28, 26, 28, 24, 26, 23, 22, 23, 21, 3, 10, 0, 5, 2, 11, 12, 9, 36, 34, 34, 31, 35, 33,
  36, 28, 27, 26, 25, 27, 23, 24, 22, 21, 21, 19, 7, 5, 5, 0, 5, 5, 7, 5, 32, 30, 29, 26, 30, 28,
  40, 30, 29, 29, 28, 30, 26, 28, 25, 23, 24, 22, 5, 10, 2, 5, 0, 10, 11, 7, 36, 34, 34, 31, 35, 33,
  33, 28, 27, 26, 25, 26, 23, 24, 21, 21, 19, 18, 12, 4, 11, 5, 10, 0, 3, 6, 28, 26, 25, 22, 26, 24,
  35, 31, 30, 28, 28, 29, 26, 27, 24, 24, 22, 21, 14, 7, 12, 7, 11, 3, 0, 5, 29, 27, 26, 24, 27, 25,
  39, 32, 32, 30, 30, 31, 27, 29, 26, 25, 24, 23, 11, 9, 9, 5, 7, 6, 5, 0, 34, 32, 31, 28, 32, 30,
  10, 23, 25, 20, 22, 19, 21, 19, 20, 22, 17, 20, 35, 26, 36, 32, 36, 28, 29, 34, 0, 2, 3, 5, 5, 5,
  10, 22, 23, 18, 20, 18, 20, 17, 18, 20, 15, 18, 33, 24, 34, 30, 34, 26, 27, 32, 2, 0, 2, 4, 5, 5,
  12, 23, 25, 20, 21, 19, 21, 18, 19, 21, 16, 18, 33, 24, 34, 29, 34, 25, 26, 31, 3, 2, 0, 3, 4, 3,
  13, 21, 23, 18, 19, 17, 18, 16, 16, 18, 13, 16, 30, 21, 31, 26, 31, 22, 24, 28, 5, 4, 3, 0, 6, 4,
  15, 27, 28, 23, 25, 23, 24, 22, 22, 24, 19, 21, 35, 25, 35, 30, 35, 26, 27, 32, 5, 5, 4, 6, 0, 2,
  15, 26, 27, 22, 23, 21, 23, 21, 21, 22, 17, 20, 33, 23, 33, 28, 33, 24, 25, 30, 5, 5, 3, 4, 2, 0
]);