% Instance générée automatiquement depuis Solomon
% Fichier : R101_25.dzn (Corrigé avec array2d)

% Instance : R101_25.dzn
n = 25;
K = 8; % <-- ON PASSE A 5 VEHICULES ICI
cap = 200;

demand = [10, 7, 13, 19, 26, 3, 5, 9, 16, 16, 12, 19, 23, 20, 8, 19, 2, 12, 17, 9, 11, 18, 29, 3, 6];

early = [161, 50, 116, 149, 34, 99, 81, 95, 97, 124, 67, 63, 159, 32, 61, 75, 157, 87, 76, 126, 62, 97, 68, 153, 172];

late = [171, 60, 126, 159, 44, 109, 91, 105, 107, 134, 77, 73, 169, 42, 71, 85, 167, 97, 86, 136, 72, 107, 78, 163, 182];

service = [10, 10, 10, 10, 10, 10, 10, 10, 10, 10, 10, 10, 10, 10, 10, 10, 10, 10, 10, 10, 10, 10, 10, 10, 10];

depot_early = 0;
depot_late  = 230;

% dist[i,j] : distance entre i et j (0 = dépôt, 1..n = clients)
dist = array2d(0..n, 0..n, [
  0, 15, 18, 22, 25, 21, 11, 21, 26, 32, 25, 34, 15, 11, 32, 30, 29, 30, 16, 32, 32, 18, 27, 36, 30, 34,
  15, 0, 33, 15, 32, 32, 25, 21, 32, 18, 16, 26, 17, 26, 47, 45, 42, 41, 23, 28, 16, 29, 39, 46, 28, 38,
  18, 33, 0, 34, 20, 24, 16, 36, 36, 47, 43, 50, 23, 9, 21, 13, 25, 33, 27, 47, 49, 10, 12, 23, 35, 30,
  22, 15, 34, 0, 25, 43, 34, 35, 45, 15, 29, 40, 11, 32, 53, 47, 51, 52, 35, 43, 22, 27, 36, 40, 14, 27,
  25, 32, 20, 25, 0, 41, 32, 46, 51, 40, 47, 57, 16, 25, 41, 29, 45, 51, 40, 57, 46, 10, 14, 15, 18, 10,
  21, 32, 24, 43, 41, 0, 10, 21, 14, 50, 34, 35, 35, 16, 20, 29, 11, 10, 11, 30, 46, 32, 36, 47, 50, 51,
  11, 25, 16, 34, 32, 10, 0, 21, 20, 42, 30, 35, 25, 7, 22, 25, 18, 20, 11, 32, 40, 22, 28, 39, 40, 41,
  21, 21, 36, 35, 46, 21, 21, 0, 12, 36, 14, 15, 34, 27, 40, 46, 32, 25, 10, 11, 29, 39, 47, 57, 47, 54,
  26, 32, 36, 45, 51, 14, 20, 12, 0, 48, 26, 24, 41, 27, 33, 43, 23, 14, 10, 18, 41, 42, 48, 59, 56, 60,
  32, 18, 47, 15, 40, 50, 42, 36, 48, 0, 25, 35, 25, 43, 64, 60, 60, 58, 40, 40, 11, 41, 51, 55, 27, 41,
  25, 16, 43, 29, 47, 34, 30, 14, 26, 25, 0, 11, 32, 35, 52, 55, 45, 39, 22, 15, 16, 43, 52, 60, 43, 53,
  34, 26, 50, 40, 57, 35, 35, 15, 24, 35, 11, 0, 42, 41, 55, 61, 46, 38, 25, 7, 25, 51, 60, 69, 54, 64,
  15, 17, 23, 11, 16, 35, 25, 34, 41, 25, 32, 42, 0, 22, 43, 36, 43, 45, 30, 43, 30, 16, 25, 30, 15, 21,
  11, 26, 9, 32, 25, 16, 7, 27, 27, 43, 35, 41, 22, 0, 21, 20, 21, 25, 18, 38, 43, 16, 21, 32, 36, 35,
  32, 47, 21, 53, 41, 20, 22, 40, 33, 64, 52, 55, 43, 21, 0, 16, 11, 22, 30, 50, 63, 32, 30, 40, 56, 51,
  30, 45, 13, 47, 29, 29, 25, 46, 43, 60, 55, 61, 36, 20, 16, 0, 25, 35, 36, 57, 62, 21, 16, 25, 46, 38,
  29, 42, 25, 51, 45, 11, 18, 32, 23, 60, 45, 46, 43, 21, 11, 25, 0, 11, 22, 40, 57, 35, 36, 47, 57, 55,
  30, 41, 33, 52, 51, 10, 20, 25, 14, 58, 39, 38, 45, 25, 22, 35, 11, 0, 18, 32, 53, 41, 45, 56, 60, 61,
  16, 23, 27, 35, 40, 11, 11, 10, 10, 40, 22, 25, 30, 18, 30, 36, 22, 18, 0, 21, 35, 32, 39, 49, 45, 49,
  32, 28, 47, 43, 57, 30, 32, 11, 18, 40, 15, 7, 43, 38, 50, 57, 40, 32, 21, 0, 30, 50, 58, 68, 56, 64,
  32, 16, 49, 22, 46, 46, 40, 29, 41, 11, 16, 25, 30, 43, 63, 62, 57, 53, 35, 30, 0, 45, 55, 61, 36, 49,
  18, 29, 10, 27, 10, 32, 22, 39, 42, 41, 43, 51, 16, 16, 32, 21, 35, 41, 32, 50, 45, 0, 10, 18, 25, 20,
  27, 39, 12, 36, 14, 36, 28, 47, 48, 51, 52, 60, 25, 21, 30, 16, 36, 45, 39, 58, 55, 10, 0, 11, 32, 22,
  36, 46, 23, 40, 15, 47, 39, 57, 59, 55, 60, 69, 30, 32, 40, 25, 47, 56, 49, 68, 61, 18, 11, 0, 32, 18,
  30, 28, 35, 14, 18, 50, 40, 47, 56, 27, 43, 54, 15, 36, 56, 46, 57, 60, 45, 56, 36, 25, 32, 32, 0, 15,
  34, 38, 30, 27, 10, 51, 41, 54, 60, 41, 53, 64, 21, 35, 51, 38, 55, 61, 49, 64, 49, 20, 22, 18, 15, 0
]);