% Instance générée automatiquement depuis Solomon
% Fichier : RC101_25.dzn (Corrigé avec array2d)

n = 25;
K = 4; % <-- ON PASSE A 4 VEHICULES (Demande = 540, Cap = 200, + marge pour les fenêtres de temps)
cap = 200;

demand = [20, 30, 10, 40, 20, 20, 20, 10, 20, 30, 40, 20, 10, 10, 20, 20, 20, 20, 40, 10, 10, 40, 30, 10, 20];

early = [145, 50, 109, 141, 41, 95, 79, 91, 91, 119, 59, 64, 142, 35, 58, 72, 149, 87, 72, 122, 67, 92, 65, 148, 154];

late = [175, 80, 139, 171, 71, 125, 109, 121, 121, 149, 89, 94, 172, 65, 88, 102, 179, 117, 102, 152, 97, 122, 95, 178, 184];

service = [10, 10, 10, 10, 10, 10, 10, 10, 10, 10, 10, 10, 10, 10, 10, 10, 10, 10, 10, 10, 10, 10, 10, 10, 10];

depot_early = 0;
depot_late  = 240;

% dist[i,j] : distance entre i et j (0 = dépôt, 1..n = clients)
dist = array2d(0..n, 0..n, [
  0, 38, 31, 39, 36, 40, 33, 35, 39, 34, 32, 34, 32, 38, 35, 39, 41, 40, 45, 40, 35, 45, 35, 45, 35, 45,
  38, 0, 10, 3, 7, 5, 12, 14, 11, 52, 47, 48, 43, 54, 45, 51, 51, 47, 82, 77, 72, 81, 72, 81, 71, 81,
  31, 10, 0, 10, 5, 10, 4, 7, 9, 42, 37, 38, 33, 43, 34, 40, 41, 37, 73, 68, 63, 72, 63, 72, 62, 71,
  39, 3, 10, 0, 5, 2, 11, 12, 9, 51, 47, 47, 42, 53, 43, 49, 50, 46, 83, 78, 73, 82, 72, 82, 72, 81,
  36, 7, 5, 5, 0, 5, 5, 7, 5, 46, 41, 42, 37, 47, 38, 44, 45, 40, 79, 73, 69, 78, 68, 77, 67, 76,
  40, 5, 10, 2, 5, 0, 10, 11, 7, 51, 46, 47, 42, 52, 43, 48, 49, 45, 84, 78, 73, 82, 73, 82, 72, 81,
  33, 12, 4, 11, 5, 10, 0, 3, 6, 41, 36, 36, 32, 42, 33, 38, 39, 35, 75, 69, 65, 73, 64, 73, 63, 72,
  35, 14, 7, 12, 7, 11, 3, 0, 5, 40, 35, 36, 31, 41, 32, 37, 38, 34, 76, 70, 66, 74, 65, 74, 64, 73,
  39, 11, 9, 9, 5, 7, 6, 5, 0, 45, 40, 41, 36, 46, 36, 42, 43, 38, 80, 75, 70, 79, 70, 78, 69, 78,
  34, 52, 42, 51, 46, 51, 41, 40, 45, 0, 5, 5, 10, 5, 11, 9, 11, 14, 45, 41, 38, 42, 36, 41, 34, 39,
  32, 47, 37, 47, 41, 46, 36, 35, 40, 5, 0, 2, 5, 7, 7, 8, 10, 11, 49, 44, 41, 46, 39, 45, 38, 43,
  34, 48, 38, 47, 42, 47, 36, 36, 41, 5, 2, 0, 5, 6, 6, 6, 8, 9, 50, 45, 42, 47, 41, 46, 39, 44,
  32, 43, 33, 42, 37, 42, 32, 31, 36, 10, 5, 5, 0, 10, 3, 8, 9, 8, 54, 49, 45, 51, 44, 50, 42, 48,
  38, 54, 43, 53, 47, 52, 42, 41, 46, 5, 7, 6, 10, 0, 10, 6, 7, 11, 49, 45, 42, 46, 40, 45, 39, 42,
  35, 45, 34, 43, 38, 43, 33, 32, 36, 11, 7, 6, 3, 10, 0, 6, 7, 5, 56, 51, 48, 53, 46, 52, 45, 50,
  39, 51, 40, 49, 44, 48, 38, 37, 42, 9, 8, 6, 8, 6, 6, 0, 2, 5, 55, 50, 47, 52, 45, 50, 44, 48,
  41, 51, 41, 50, 45, 49, 39, 38, 43, 11, 10, 8, 9, 7, 7, 2, 0, 5, 56, 52, 49, 53, 47, 52, 45, 49,
  40, 47, 37, 46, 40, 45, 35, 34, 38, 14, 11, 9, 8, 11, 5, 5, 5, 0, 59, 55, 52, 57, 50, 55, 48, 53,
  45, 82, 73, 83, 79, 84, 75, 76, 80, 45, 49, 50, 54, 49, 56, 55, 56, 59, 0, 5, 10, 4, 11, 6, 12, 9,
  40, 77, 68, 78, 73, 78, 69, 70, 75, 41, 44, 45, 49, 45, 51, 50, 52, 55, 5, 0, 5, 5, 5, 6, 6, 9,
  35, 72, 63, 73, 69, 73, 65, 66, 70, 38, 41, 42, 45, 42, 48, 47, 49, 52, 10, 5, 0, 10, 2, 11, 4, 12,
  45, 81, 72, 82, 78, 82, 73, 74, 79, 42, 46, 47, 51, 46, 53, 52, 53, 57, 4, 5, 10, 0, 10, 2, 10, 5,
  35, 72, 63, 72, 68, 73, 64, 65, 70, 36, 39, 41, 44, 40, 46, 45, 47, 50, 11, 5, 2, 10, 0, 10, 2, 11,
  45, 81, 72, 82, 77, 82, 73, 74, 78, 41, 45, 46, 50, 45, 52, 50, 52, 55, 6, 6, 11, 2, 10, 0, 10, 3,
  35, 71, 62, 72, 67, 72, 63, 64, 69, 34, 38, 39, 42, 39, 45, 44, 45, 48, 12, 6, 4, 10, 2, 10, 0, 10,
  45, 81, 71, 81, 76, 81, 72, 73, 78, 39, 43, 44, 48, 42, 50, 48, 49, 53, 9, 9, 12, 5, 11, 3, 10, 0
]);